macro  KOKKOS_ENABLE_CUDA      : defined
macro  CUDA_VERSION          = 10000 = version 10.0
Kokkos::Cuda[ 0 ] TITAN Xp capability 6.1, Total Global Memory: 11.91 G, Shared Memory per Block: 48 K : Selected

#InputFile:
#=========================================================
# 3d Lennard-Jones melt 

units lj 
atom_style atomic 

newton off 
lattice fcc 0.8442 
region box block 0 160 0 160 0 160 
create_box 1 box 
create_atoms 1 box 
mass 1 2.0 

velocity all create 1.4 87287 loop geom 

pair_style lj/cut 2.5 
pair_coeff 1 1 1.0 1.0 2.5 

neighbor 0.3 bin 
neigh_modify delay 0 every 20 check no 
fix 1 all nve 
thermo 10 

run 1000 
#=========================================================

Using: ForceLJNeighFull Neighbor2D CommMPI BinningKKSort
Atoms: 16384000 16384000

#Timestep Temperature PotE ETot Time Atomsteps/s
0 1.400000 -6.332812 -4.232812 0.000000 0.000000e+00
10 1.267050 -6.133727 -4.233153 10.398103 1.575672e+07
20 0.772060 -5.390506 -4.232416 23.466531 1.253709e+07
30 0.620836 -5.163999 -4.232746 34.242886 1.520366e+07
40 0.717897 -5.309801 -4.232956 47.586483 1.227855e+07
50 0.714219 -5.304150 -4.232821 58.316657 1.526909e+07
60 0.708659 -5.295813 -4.232825 71.646268 1.229143e+07
70 0.717513 -5.309106 -4.232837 82.425005 1.520030e+07
80 0.726147 -5.322056 -4.232835 95.800194 1.224955e+07
90 0.730606 -5.328739 -4.232830 106.598098 1.517332e+07
100 0.733035 -5.332379 -4.232827 119.983627 1.224008e+07
110 0.734786 -5.335005 -4.232826 130.781768 1.517298e+07
120 0.736257 -5.337210 -4.232825 144.169135 1.223840e+07
130 0.737380 -5.338894 -4.232824 154.962215 1.518010e+07
140 0.738246 -5.340193 -4.232824 168.349678 1.223832e+07
150 0.739020 -5.341354 -4.232824 179.137723 1.518718e+07
160 0.739647 -5.342294 -4.232823 192.532008 1.223208e+07
170 0.740063 -5.342918 -4.232823 203.315024 1.519427e+07
180 0.740259 -5.343212 -4.232823 216.709788 1.223164e+07
190 0.740322 -5.343306 -4.232823 227.490946 1.519688e+07
200 0.740314 -5.343293 -4.232822 240.882337 1.223473e+07
210 0.740437 -5.343478 -4.232822 251.663254 1.519722e+07
220 0.740398 -5.343419 -4.232822 265.042441 1.224589e+07
230 0.740185 -5.343100 -4.232822 275.820939 1.520063e+07
240 0.739764 -5.342468 -4.232822 289.198053 1.224778e+07
250 0.739499 -5.342071 -4.232822 299.976301 1.520099e+07
260 0.739279 -5.341741 -4.232822 313.360896 1.224094e+07
270 0.738904 -5.341179 -4.232822 324.139603 1.520034e+07
280 0.738491 -5.340559 -4.232822 337.521956 1.224299e+07
290 0.738081 -5.339944 -4.232822 348.301011 1.519985e+07
300 0.737660 -5.339313 -4.232822 361.688175 1.223859e+07
310 0.737379 -5.338891 -4.232823 372.468806 1.519763e+07
320 0.737097 -5.338468 -4.232823 385.869403 1.222632e+07
330 0.736651 -5.337799 -4.232822 396.649076 1.519898e+07
340 0.736237 -5.337179 -4.232823 410.032786 1.224175e+07
350 0.735631 -5.336269 -4.232823 420.814060 1.519672e+07
360 0.735088 -5.335454 -4.232822 434.213044 1.222779e+07
370 0.734847 -5.335093 -4.232823 444.995812 1.519461e+07
380 0.734393 -5.334412 -4.232823 458.393129 1.222931e+07
390 0.733903 -5.333677 -4.232823 469.175788 1.519477e+07
400 0.733390 -5.332908 -4.232823 482.564659 1.223703e+07
410 0.732848 -5.332095 -4.232823 493.350300 1.519057e+07
420 0.732288 -5.331254 -4.232823 506.739564 1.223667e+07
430 0.731792 -5.330511 -4.232823 517.524900 1.519100e+07
440 0.731328 -5.329815 -4.232823 530.926387 1.222551e+07
450 0.730928 -5.329215 -4.232823 541.713868 1.518798e+07
460 0.730331 -5.328319 -4.232823 555.116366 1.222459e+07
470 0.729847 -5.327594 -4.232823 565.904187 1.518750e+07
480 0.729330 -5.326818 -4.232823 579.314249 1.221769e+07
490 0.728749 -5.325947 -4.232823 590.103753 1.518513e+07
500 0.728307 -5.325283 -4.232824 603.516731 1.221504e+07
510 0.727853 -5.324602 -4.232823 614.307399 1.518349e+07
520 0.727315 -5.323795 -4.232823 627.707479 1.222679e+07
530 0.726704 -5.322878 -4.232823 638.499145 1.518209e+07
540 0.726218 -5.322150 -4.232823 651.904266 1.222219e+07
550 0.725663 -5.321318 -4.232823 662.698291 1.517877e+07
560 0.725051 -5.320399 -4.232823 676.113222 1.221326e+07
570 0.724722 -5.319907 -4.232824 686.907072 1.517901e+07
580 0.724129 -5.319017 -4.232823 700.332041 1.220412e+07
590 0.723559 -5.318162 -4.232823 711.126718 1.517785e+07
600 0.723120 -5.317504 -4.232824 724.536344 1.221809e+07
610 0.722532 -5.316621 -4.232824 735.333627 1.517419e+07
620 0.721955 -5.315755 -4.232823 748.763327 1.219983e+07
630 0.721458 -5.315010 -4.232823 759.561478 1.517297e+07
640 0.721046 -5.314392 -4.232823 772.979284 1.221064e+07
650 0.720543 -5.313638 -4.232824 783.778737 1.517114e+07
660 0.719853 -5.312603 -4.232823 797.208204 1.220004e+07
670 0.719403 -5.311928 -4.232823 808.008241 1.517032e+07
680 0.718974 -5.311285 -4.232824 821.434744 1.220273e+07
690 0.718136 -5.310027 -4.232823 832.237798 1.516608e+07
700 0.717525 -5.309111 -4.232824 845.659333 1.220725e+07
710 0.717047 -5.308394 -4.232823 856.462677 1.516567e+07
720 0.716568 -5.307675 -4.232823 869.899843 1.219305e+07
730 0.716099 -5.306972 -4.232824 880.704772 1.516345e+07
740 0.715492 -5.306061 -4.232823 894.131542 1.220249e+07
750 0.714976 -5.305287 -4.232824 904.937861 1.516150e+07
760 0.714443 -5.304488 -4.232824 918.370689 1.219698e+07
770 0.713977 -5.303788 -4.232823 929.176050 1.516284e+07
780 0.713638 -5.303281 -4.232824 942.612509 1.219369e+07
790 0.713152 -5.302551 -4.232823 953.420940 1.515854e+07
800 0.712705 -5.301881 -4.232824 966.857890 1.219324e+07
810 0.712180 -5.301094 -4.232824 977.666902 1.515772e+07
820 0.711557 -5.300160 -4.232824 991.103388 1.219366e+07
830 0.710920 -5.299204 -4.232824 1001.913254 1.515652e+07
840 0.710322 -5.298307 -4.232823 1015.351210 1.219233e+07
850 0.709907 -5.297683 -4.232823 1026.162791 1.515412e+07
860 0.709583 -5.297198 -4.232824 1039.609012 1.218484e+07
870 0.709076 -5.296438 -4.232824 1050.420494 1.515426e+07
880 0.708523 -5.295608 -4.232823 1063.877049 1.217548e+07
890 0.707954 -5.294754 -4.232823 1074.689106 1.515345e+07
900 0.707500 -5.294073 -4.232823 1088.137361 1.218299e+07
910 0.707225 -5.293661 -4.232824 1098.952038 1.514978e+07
920 0.706554 -5.292654 -4.232823 1112.403844 1.217978e+07
930 0.706104 -5.291979 -4.232823 1123.218864 1.514930e+07
940 0.705622 -5.291255 -4.232823 1136.665796 1.218419e+07
950 0.705257 -5.290709 -4.232823 1147.481821 1.514789e+07
Abort is in progress...hit ctrl-c again within 5 seconds to forcibly terminate

