macro  KOKKOS_ENABLE_CUDA      : defined
macro  CUDA_VERSION          = 10000 = version 10.0
Kokkos::Cuda[ 0 ] TITAN Xp capability 6.1, Total Global Memory: 11.91 G, Shared Memory per Block: 48 K : Selected

#InputFile:
#=========================================================
# 3d Lennard-Jones melt 

units lj 
atom_style atomic 

newton off 
lattice fcc 0.8442 
region box block 0 160 0 160 0 160 
create_box 1 box 
create_atoms 1 box 
mass 1 2.0 

velocity all create 1.4 87287 loop geom 

pair_style lj/cut 2.5 
pair_coeff 1 1 1.0 1.0 2.5 

neighbor 0.3 bin 
neigh_modify delay 0 every 20 check no 
fix 1 all nve 
thermo 10 

run 1000 
#=========================================================

Using: ForceLJNeighFull Neighbor2D CommMPI BinningKKSort
Atoms: 16384000 16384000

#Timestep Temperature PotE ETot Time Atomsteps/s
0 1.400000 -6.332812 -4.232812 0.000000 0.000000e+00
10 1.267050 -6.133727 -4.233153 3.448912 4.750484e+07
20 0.772060 -5.390506 -4.232416 7.957926 3.633610e+07
30 0.620836 -5.163999 -4.232746 11.596275 4.503142e+07
40 0.717897 -5.309801 -4.232956 16.198848 3.559748e+07
50 0.714219 -5.304150 -4.232821 19.821607 4.522519e+07
60 0.708659 -5.295813 -4.232825 24.423752 3.560080e+07
70 0.717513 -5.309106 -4.232837 28.062115 4.503124e+07
80 0.726147 -5.322056 -4.232835 32.685223 3.543936e+07
90 0.730606 -5.328739 -4.232830 36.329594 4.495700e+07
100 0.733035 -5.332379 -4.232827 40.941024 3.552912e+07
110 0.734786 -5.335005 -4.232826 44.586209 4.494695e+07
120 0.736257 -5.337210 -4.232825 49.211136 3.542542e+07
130 0.737380 -5.338894 -4.232824 52.854631 4.496782e+07
140 0.738246 -5.340193 -4.232824 57.482405 3.540363e+07
150 0.739020 -5.341354 -4.232824 61.123950 4.499189e+07
160 0.739647 -5.342294 -4.232823 65.743912 3.546349e+07
170 0.740063 -5.342918 -4.232823 69.384092 4.500877e+07
180 0.740259 -5.343212 -4.232823 74.006765 3.544270e+07
190 0.740322 -5.343306 -4.232823 77.645954 4.502102e+07
200 0.740314 -5.343293 -4.232822 82.267249 3.545327e+07
210 0.740437 -5.343478 -4.232822 85.905936 4.502723e+07
220 0.740398 -5.343419 -4.232822 90.529973 3.543224e+07
230 0.740185 -5.343100 -4.232822 94.168490 4.502934e+07
240 0.739764 -5.342468 -4.232822 98.793720 3.542310e+07
250 0.739499 -5.342071 -4.232822 102.431789 4.503488e+07
260 0.739279 -5.341741 -4.232822 107.040990 3.554629e+07
270 0.738904 -5.341179 -4.232822 110.679299 4.503190e+07
280 0.738491 -5.340559 -4.232822 115.286785 3.555953e+07
290 0.738081 -5.339944 -4.232822 118.925551 4.502625e+07
300 0.737660 -5.339313 -4.232822 123.536045 3.553633e+07
310 0.737379 -5.338891 -4.232823 127.174987 4.502407e+07
320 0.737097 -5.338468 -4.232823 131.794347 3.546811e+07
330 0.736651 -5.337799 -4.232822 135.433551 4.502084e+07
340 0.736237 -5.337179 -4.232823 140.052364 3.547232e+07
350 0.735631 -5.336269 -4.232823 143.691730 4.501883e+07
360 0.735088 -5.335454 -4.232822 148.311450 3.546535e+07
370 0.734847 -5.335093 -4.232823 151.951362 4.501208e+07
380 0.734393 -5.334412 -4.232823 156.564934 3.551262e+07
390 0.733903 -5.333677 -4.232823 160.204922 4.501114e+07
400 0.733390 -5.332908 -4.232823 164.833167 3.540003e+07
410 0.732848 -5.332095 -4.232823 168.473757 4.500369e+07
420 0.732288 -5.331254 -4.232823 173.082446 3.555024e+07
430 0.731792 -5.330511 -4.232823 176.723589 4.499686e+07
440 0.731328 -5.329815 -4.232823 181.350510 3.541016e+07
450 0.730928 -5.329215 -4.232823 184.991897 4.499385e+07
460 0.730331 -5.328319 -4.232823 189.604863 3.551728e+07
470 0.729847 -5.327594 -4.232823 193.246561 4.499000e+07
480 0.729330 -5.326818 -4.232823 197.873810 3.540765e+07
490 0.728749 -5.325947 -4.232823 201.516000 4.498392e+07
500 0.728307 -5.325283 -4.232824 206.140584 3.542805e+07
510 0.727853 -5.324602 -4.232823 209.783293 4.497752e+07
520 0.727315 -5.323795 -4.232823 214.416832 3.535958e+07
530 0.726704 -5.322878 -4.232823 218.059779 4.497458e+07
540 0.726218 -5.322150 -4.232823 222.677968 3.547711e+07
550 0.725663 -5.321318 -4.232823 226.321734 4.496446e+07
560 0.725051 -5.320399 -4.232823 230.932860 3.553145e+07
570 0.724722 -5.319907 -4.232824 234.577181 4.495762e+07
580 0.724129 -5.319017 -4.232823 239.207263 3.538598e+07
590 0.723559 -5.318162 -4.232823 242.851800 4.495495e+07
600 0.723120 -5.317504 -4.232824 247.474275 3.544422e+07
610 0.722532 -5.316621 -4.232824 251.119121 4.495115e+07
620 0.721955 -5.315755 -4.232823 255.747365 3.540003e+07
630 0.721458 -5.315010 -4.232823 259.392372 4.494915e+07
640 0.721046 -5.314392 -4.232823 264.013567 3.545404e+07
650 0.720543 -5.313638 -4.232824 267.659192 4.494153e+07
660 0.719853 -5.312603 -4.232823 272.276021 3.548756e+07
670 0.719403 -5.311928 -4.232823 275.921802 4.493962e+07
680 0.718974 -5.311285 -4.232824 280.550383 3.539745e+07
690 0.718136 -5.310027 -4.232823 284.196640 4.493376e+07
700 0.717525 -5.309111 -4.232824 288.825360 3.539639e+07
710 0.717047 -5.308394 -4.232823 292.472520 4.492263e+07
720 0.716568 -5.307675 -4.232823 297.093489 3.545576e+07
730 0.716099 -5.306972 -4.232824 300.740545 4.492391e+07
740 0.715492 -5.306061 -4.232823 305.360272 3.546530e+07
750 0.714976 -5.305287 -4.232824 309.007731 4.491894e+07
760 0.714443 -5.304488 -4.232824 313.636178 3.539848e+07
770 0.713977 -5.303788 -4.232823 317.283789 4.491708e+07
780 0.713638 -5.303281 -4.232824 321.918719 3.534897e+07
790 0.713152 -5.302551 -4.232823 325.566518 4.491476e+07
800 0.712705 -5.301881 -4.232824 330.199657 3.536263e+07
810 0.712180 -5.301094 -4.232824 333.848404 4.490308e+07
820 0.711557 -5.300160 -4.232824 338.490094 3.529749e+07
830 0.710920 -5.299204 -4.232824 342.138841 4.490309e+07
840 0.710322 -5.298307 -4.232823 346.764945 3.541641e+07
850 0.709907 -5.297683 -4.232823 350.414073 4.489840e+07
860 0.709583 -5.297198 -4.232824 355.035518 3.545212e+07
870 0.709076 -5.296438 -4.232824 358.685086 4.489299e+07
880 0.708523 -5.295608 -4.232823 363.317617 3.536727e+07
890 0.707954 -5.294754 -4.232823 366.967144 4.489349e+07
900 0.707500 -5.294073 -4.232823 371.602800 3.534344e+07
910 0.707225 -5.293661 -4.232824 375.253215 4.488257e+07
920 0.706554 -5.292654 -4.232823 379.882897 3.538904e+07
930 0.706104 -5.291979 -4.232823 383.533071 4.488553e+07
940 0.705622 -5.291255 -4.232823 388.169267 3.533932e+07
950 0.705257 -5.290709 -4.232823 391.820335 4.487455e+07
960 0.704860 -5.290114 -4.232823 396.466561 3.526302e+07
970 0.704218 -5.289150 -4.232823 400.117905 4.487115e+07
980 0.703663 -5.288318 -4.232823 404.758266 3.530760e+07
990 0.703195 -5.287615 -4.232823 408.409935 4.486715e+07
1000 0.702793 -5.287013 -4.232823 413.043849 3.535672e+07

#Procs Particles | Time T_Force T_Neigh T_Comm T_Other | Steps/s Atomsteps/s Atomsteps/(proc*s)
1 16384000 | 413.043856 280.944450 43.488092 14.515810 74.095237 | 2.421050 3.966649e+07 3.966649e+07 PERFORMANCE
424076
start time: 14:28:30
