macro  KOKKOS_ENABLE_CUDA      : defined
macro  CUDA_VERSION          = 10000 = version 10.0
Kokkos::Cuda[ 0 ] TITAN Xp capability 6.1, Total Global Memory: 11.91 G, Shared Memory per Block: 48 K : Selected

#InputFile:
#=========================================================
# 3d Lennard-Jones melt 

units lj 
atom_style atomic 

newton off 
lattice fcc 0.8442 
region box block 0 160 0 160 0 160 
create_box 1 box 
create_atoms 1 box 
mass 1 2.0 

velocity all create 1.4 87287 loop geom 

pair_style lj/cut 2.5 
pair_coeff 1 1 1.0 1.0 2.5 

neighbor 0.3 bin 
neigh_modify delay 0 every 20 check no 
fix 1 all nve 
thermo 10 

run 1000 
#=========================================================

Using: ForceLJNeighFull Neighbor2D CommMPI BinningKKSort
Atoms: 16384000 16384000

#Timestep Temperature PotE ETot Time Atomsteps/s
0 1.400000 -6.332812 -4.232812 0.000000 0.000000e+00
10 1.267050 -6.133727 -4.233153 1.639973 9.990420e+07
20 0.772060 -5.390506 -4.232416 3.815418 7.531325e+07
30 0.620836 -5.163999 -4.232746 5.556899 9.408086e+07
40 0.717897 -5.309801 -4.232956 7.811740 7.266145e+07
50 0.714219 -5.304150 -4.232821 9.579511 9.268166e+07
60 0.708659 -5.295813 -4.232825 11.848686 7.220246e+07
70 0.717513 -5.309106 -4.232837 13.631812 9.188357e+07
80 0.726147 -5.322056 -4.232835 15.899867 7.223811e+07
90 0.730606 -5.328739 -4.232830 17.686775 9.168910e+07
100 0.733035 -5.332379 -4.232827 19.959171 7.210013e+07
110 0.734786 -5.335005 -4.232826 21.748477 9.156620e+07
120 0.736257 -5.337210 -4.232825 24.021798 7.207083e+07
130 0.737380 -5.338894 -4.232824 25.812937 9.147244e+07
140 0.738246 -5.340193 -4.232824 28.086817 7.205305e+07
150 0.739020 -5.341354 -4.232824 29.876902 9.152636e+07
160 0.739647 -5.342294 -4.232823 32.150134 7.207361e+07
170 0.740063 -5.342918 -4.232823 33.939128 9.158218e+07
180 0.740259 -5.343212 -4.232823 36.211996 7.208513e+07
190 0.740322 -5.343306 -4.232823 37.999766 9.164493e+07
200 0.740314 -5.343293 -4.232822 40.272792 7.208011e+07
210 0.740437 -5.343478 -4.232822 42.060164 9.166532e+07
220 0.740398 -5.343419 -4.232822 44.335745 7.199920e+07
230 0.740185 -5.343100 -4.232822 46.124903 9.157378e+07
240 0.739764 -5.342468 -4.232822 48.397151 7.210481e+07
250 0.739499 -5.342071 -4.232822 50.186435 9.156734e+07
260 0.739279 -5.341741 -4.232822 52.462892 7.197152e+07
270 0.738904 -5.341179 -4.232822 54.252984 9.152598e+07
280 0.738491 -5.340559 -4.232822 56.530638 7.193368e+07
290 0.738081 -5.339944 -4.232822 58.320523 9.153661e+07
300 0.737660 -5.339313 -4.232822 60.593744 7.207394e+07
310 0.737379 -5.338891 -4.232823 62.383829 9.152636e+07
320 0.737097 -5.338468 -4.232823 64.657809 7.204990e+07
330 0.736651 -5.337799 -4.232822 66.449355 9.145174e+07
340 0.736237 -5.337179 -4.232823 68.720831 7.212931e+07
350 0.735631 -5.336269 -4.232823 70.510685 9.153818e+07
360 0.735088 -5.335454 -4.232822 72.786287 7.199854e+07
370 0.734847 -5.335093 -4.232823 74.573901 9.165287e+07
380 0.734393 -5.334412 -4.232823 76.850246 7.197504e+07
390 0.733903 -5.333677 -4.232823 78.640989 9.149277e+07
400 0.733390 -5.332908 -4.232823 80.917378 7.197363e+07
410 0.732848 -5.332095 -4.232823 82.707760 9.151121e+07
420 0.732288 -5.331254 -4.232823 84.983091 7.200708e+07
430 0.731792 -5.330511 -4.232823 86.776952 9.133374e+07
440 0.731328 -5.329815 -4.232823 89.052536 7.199910e+07
450 0.730928 -5.329215 -4.232823 90.843530 9.147990e+07
460 0.730331 -5.328319 -4.232823 93.118652 7.201375e+07
470 0.729847 -5.327594 -4.232823 94.912308 9.134414e+07
480 0.729330 -5.326818 -4.232823 97.189776 7.193955e+07
490 0.728749 -5.325947 -4.232823 98.980627 9.148721e+07
500 0.728307 -5.325283 -4.232824 101.255752 7.201369e+07
510 0.727853 -5.324602 -4.232823 103.048400 9.139542e+07
520 0.727315 -5.323795 -4.232823 105.328109 7.186883e+07
530 0.726704 -5.322878 -4.232823 107.118137 9.152928e+07
540 0.726218 -5.322150 -4.232823 109.395662 7.193776e+07
550 0.725663 -5.321318 -4.232823 111.188662 9.137758e+07
560 0.725051 -5.320399 -4.232823 113.465777 7.195067e+07
570 0.724722 -5.319907 -4.232824 115.257075 9.146444e+07
580 0.724129 -5.319017 -4.232823 117.536942 7.186383e+07
590 0.723559 -5.318162 -4.232823 119.331916 9.127710e+07
600 0.723120 -5.317504 -4.232824 121.609998 7.192013e+07
610 0.722532 -5.316621 -4.232824 123.405224 9.126426e+07
620 0.721955 -5.315755 -4.232823 125.687199 7.179746e+07
630 0.721458 -5.315010 -4.232823 127.481108 9.133128e+07
640 0.721046 -5.314392 -4.232823 129.761616 7.184365e+07
650 0.720543 -5.313638 -4.232824 131.556409 9.128633e+07
660 0.719853 -5.312603 -4.232823 133.836809 7.184703e+07
670 0.719403 -5.311928 -4.232823 135.632590 9.123604e+07
680 0.718974 -5.311285 -4.232824 137.910836 7.191499e+07
690 0.718136 -5.310027 -4.232823 139.703642 9.138745e+07
700 0.717525 -5.309111 -4.232824 141.990092 7.165694e+07
710 0.717047 -5.308394 -4.232823 143.786506 9.120394e+07
720 0.716568 -5.307675 -4.232823 146.074774 7.160000e+07
730 0.716099 -5.306972 -4.232824 147.869619 9.128363e+07
740 0.715492 -5.306061 -4.232823 150.154494 7.170635e+07
750 0.714976 -5.305287 -4.232824 151.949223 9.128956e+07
760 0.714443 -5.304488 -4.232824 154.227822 7.190381e+07
770 0.713977 -5.303788 -4.232823 156.023487 9.124199e+07
780 0.713638 -5.303281 -4.232824 158.303264 7.186668e+07
790 0.713152 -5.302551 -4.232823 160.099027 9.123697e+07
800 0.712705 -5.301881 -4.232824 162.385324 7.166172e+07
810 0.712180 -5.301094 -4.232824 164.180604 9.126153e+07
820 0.711557 -5.300160 -4.232824 166.464544 7.173569e+07
830 0.710920 -5.299204 -4.232824 168.261542 9.117430e+07
840 0.710322 -5.298307 -4.232823 170.555005 7.143781e+07
850 0.709907 -5.297683 -4.232823 172.352974 9.112504e+07
860 0.709583 -5.297198 -4.232824 174.636811 7.173894e+07
870 0.709076 -5.296438 -4.232824 176.435392 9.109405e+07
880 0.708523 -5.295608 -4.232823 178.723062 7.161872e+07
890 0.707954 -5.294754 -4.232823 180.520406 9.115672e+07
900 0.707500 -5.294073 -4.232823 182.817552 7.132329e+07
910 0.707225 -5.293661 -4.232824 184.615802 9.111080e+07
920 0.706554 -5.292654 -4.232823 186.908382 7.146533e+07
930 0.706104 -5.291979 -4.232823 188.709131 9.098438e+07
940 0.705622 -5.291255 -4.232823 190.998687 7.155970e+07
950 0.705257 -5.290709 -4.232823 192.796101 9.115320e+07
960 0.704860 -5.290114 -4.232823 195.086138 7.154470e+07
970 0.704218 -5.289150 -4.232823 196.887365 9.096021e+07
980 0.703663 -5.288318 -4.232823 199.179766 7.147093e+07
990 0.703195 -5.287615 -4.232823 200.979837 9.101859e+07
1000 0.702793 -5.287013 -4.232823 203.269603 7.155317e+07

#Procs Particles | Time T_Force T_Neigh T_Comm T_Other | Steps/s Atomsteps/s Atomsteps/(proc*s)
1 16384000 | 203.269610 132.716595 21.201996 8.125083 41.225696 | 4.919575 8.060231e+07 8.060231e+07 PERFORMANCE
211979
start time: 04:17:07
