macro  KOKKOS_ENABLE_CUDA      : defined
macro  CUDA_VERSION          = 10000 = version 10.0
Kokkos::Cuda[ 0 ] TITAN Xp capability 6.1, Total Global Memory: 11.91 G, Shared Memory per Block: 48 K : Selected

#InputFile:
#=========================================================
# 3d Lennard-Jones melt 

units lj 
atom_style atomic 

newton off 
lattice fcc 0.8442 
region box block 0 160 0 160 0 160 
create_box 1 box 
create_atoms 1 box 
mass 1 2.0 

velocity all create 1.4 87287 loop geom 

pair_style lj/cut 2.5 
pair_coeff 1 1 1.0 1.0 2.5 

neighbor 0.3 bin 
neigh_modify delay 0 every 20 check no 
fix 1 all nve 
thermo 10 

run 1000 
#=========================================================

Using: ForceLJNeighFull Neighbor2D CommMPI BinningKKSort
Atoms: 16384000 16384000

#Timestep Temperature PotE ETot Time Atomsteps/s
0 1.400000 -6.332812 -4.232812 0.000000 0.000000e+00
10 1.267050 -6.133727 -4.233153 3.105908 5.275110e+07
20 0.772060 -5.390506 -4.232416 7.166481 4.034898e+07
30 0.620836 -5.163999 -4.232746 10.442602 5.001036e+07
40 0.717897 -5.309801 -4.232956 14.528174 4.010210e+07
50 0.714219 -5.304150 -4.232821 17.790451 5.022259e+07
60 0.708659 -5.295813 -4.232825 21.922901 3.964718e+07
70 0.717513 -5.309106 -4.232837 25.199187 5.000784e+07
80 0.726147 -5.322056 -4.232835 29.353038 3.944294e+07
90 0.730606 -5.328739 -4.232830 32.634973 4.992173e+07
100 0.733035 -5.332379 -4.232827 36.803198 3.930690e+07
110 0.734786 -5.335005 -4.232826 40.085734 4.991263e+07
120 0.736257 -5.337210 -4.232825 44.242833 3.941210e+07
130 0.737380 -5.338894 -4.232824 47.523440 4.994198e+07
140 0.738246 -5.340193 -4.232824 51.685379 3.936627e+07
150 0.739020 -5.341354 -4.232824 54.964876 4.995887e+07
160 0.739647 -5.342294 -4.232823 59.122473 3.940738e+07
170 0.740063 -5.342918 -4.232823 62.400583 4.998002e+07
180 0.740259 -5.343212 -4.232823 66.557577 3.941310e+07
190 0.740322 -5.343306 -4.232823 69.834587 4.999681e+07
200 0.740314 -5.343293 -4.232822 73.988719 3.944025e+07
210 0.740437 -5.343478 -4.232822 77.265141 5.000577e+07
220 0.740398 -5.343419 -4.232822 81.424712 3.938867e+07
230 0.740185 -5.343100 -4.232822 84.701314 5.000306e+07
240 0.739764 -5.342468 -4.232822 88.857552 3.942024e+07
250 0.739499 -5.342071 -4.232822 92.133622 5.001115e+07
260 0.739279 -5.341741 -4.232822 96.284769 3.946861e+07
270 0.738904 -5.341179 -4.232822 99.561139 5.000656e+07
280 0.738491 -5.340559 -4.232822 103.718963 3.940523e+07
290 0.738081 -5.339944 -4.232822 106.995420 5.000523e+07
300 0.737660 -5.339313 -4.232822 111.149783 3.943806e+07
310 0.737379 -5.338891 -4.232823 114.426535 5.000073e+07
320 0.737097 -5.338468 -4.232823 118.593095 3.932261e+07
330 0.736651 -5.337799 -4.232822 121.869816 5.000121e+07
340 0.736237 -5.337179 -4.232823 126.028343 3.939856e+07
350 0.735631 -5.336269 -4.232823 129.305404 4.999601e+07
360 0.735088 -5.335454 -4.232822 133.457613 3.945852e+07
370 0.734847 -5.335093 -4.232823 136.735224 4.998762e+07
380 0.734393 -5.334412 -4.232823 140.897299 3.936498e+07
390 0.733903 -5.333677 -4.232823 144.175125 4.998436e+07
400 0.733390 -5.332908 -4.232823 148.335650 3.937964e+07
410 0.732848 -5.332095 -4.232823 151.613766 4.997993e+07
420 0.732288 -5.331254 -4.232823 155.767445 3.944455e+07
430 0.731792 -5.330511 -4.232823 159.045807 4.997618e+07
440 0.731328 -5.329815 -4.232823 163.200528 3.943465e+07
450 0.730928 -5.329215 -4.232823 166.479312 4.996976e+07
460 0.730331 -5.328319 -4.232823 170.634358 3.943156e+07
470 0.729847 -5.327594 -4.232823 173.913776 4.996009e+07
480 0.729330 -5.326818 -4.232823 178.079480 3.933069e+07
490 0.728749 -5.325947 -4.232823 181.359468 4.995144e+07
500 0.728307 -5.325283 -4.232824 185.516038 3.941709e+07
510 0.727853 -5.324602 -4.232823 188.796572 4.994309e+07
520 0.727315 -5.323795 -4.232823 192.962270 3.933074e+07
530 0.726704 -5.322878 -4.232823 196.242772 4.994358e+07
540 0.726218 -5.322150 -4.232823 200.399637 3.941432e+07
550 0.725663 -5.321318 -4.232823 203.680661 4.993563e+07
560 0.725051 -5.320399 -4.232823 207.849663 3.929958e+07
570 0.724722 -5.319907 -4.232824 211.131116 4.992909e+07
580 0.724129 -5.319017 -4.232823 215.286195 3.943126e+07
590 0.723559 -5.318162 -4.232823 218.567853 4.992599e+07
600 0.723120 -5.317504 -4.232824 222.740088 3.926912e+07
610 0.722532 -5.316621 -4.232824 226.022084 4.992085e+07
620 0.721955 -5.315755 -4.232823 230.184003 3.936647e+07
630 0.721458 -5.315010 -4.232823 233.466545 4.991251e+07
640 0.721046 -5.314392 -4.232823 237.639581 3.926158e+07
650 0.720543 -5.313638 -4.232824 240.922272 4.991027e+07
660 0.719853 -5.312603 -4.232823 245.091270 3.929961e+07
670 0.719403 -5.311928 -4.232823 248.374268 4.990561e+07
680 0.718974 -5.311285 -4.232824 252.541083 3.932020e+07
690 0.718136 -5.310027 -4.232823 255.824595 4.989781e+07
700 0.717525 -5.309111 -4.232824 259.993576 3.929977e+07
710 0.717047 -5.308394 -4.232823 263.277107 4.989749e+07
720 0.716568 -5.307675 -4.232823 267.441811 3.934013e+07
730 0.716099 -5.306972 -4.232824 270.725871 4.988947e+07
740 0.715492 -5.306061 -4.232823 274.912122 3.913764e+07
750 0.714976 -5.305287 -4.232824 278.196643 4.988246e+07
760 0.714443 -5.304488 -4.232824 282.372300 3.923694e+07
770 0.713977 -5.303788 -4.232823 285.657013 4.987954e+07
780 0.713638 -5.303281 -4.232824 289.831923 3.924396e+07
790 0.713152 -5.302551 -4.232823 293.116996 4.987408e+07
800 0.712705 -5.301881 -4.232824 297.284325 3.931535e+07
810 0.712180 -5.301094 -4.232824 300.569926 4.986607e+07
820 0.711557 -5.300160 -4.232824 304.738668 3.930202e+07
830 0.710920 -5.299204 -4.232824 308.024355 4.986477e+07
840 0.710322 -5.298307 -4.232823 312.205282 3.918748e+07
850 0.709907 -5.297683 -4.232823 315.491148 4.986205e+07
860 0.709583 -5.297198 -4.232824 319.662121 3.928101e+07
870 0.709076 -5.296438 -4.232824 322.948469 4.985473e+07
880 0.708523 -5.295608 -4.232823 327.118931 3.928581e+07
890 0.707954 -5.294754 -4.232823 330.405394 4.985299e+07
900 0.707500 -5.294073 -4.232823 334.579501 3.925151e+07
910 0.707225 -5.293661 -4.232824 337.866451 4.984560e+07
920 0.706554 -5.292654 -4.232823 342.041094 3.924647e+07
930 0.706104 -5.291979 -4.232823 345.328072 4.984517e+07
940 0.705622 -5.291255 -4.232823 349.506016 3.921546e+07
950 0.705257 -5.290709 -4.232823 352.793626 4.983560e+07
960 0.704860 -5.290114 -4.232823 356.975211 3.918131e+07
970 0.704218 -5.289150 -4.232823 360.263037 4.983232e+07
980 0.703663 -5.288318 -4.232823 364.440398 3.922093e+07
990 0.703195 -5.287615 -4.232823 367.728156 4.983335e+07
1000 0.702793 -5.287013 -4.232823 371.906628 3.921051e+07

#Procs Particles | Time T_Force T_Neigh T_Comm T_Other | Steps/s Atomsteps/s Atomsteps/(proc*s)
1 16384000 | 371.906636 253.348483 38.987871 12.647703 66.922339 | 2.688847 4.405407e+07 4.405407e+07 PERFORMANCE
382037
start time: 01:05:11
