macro  KOKKOS_ENABLE_CUDA      : defined
macro  CUDA_VERSION          = 10000 = version 10.0
Kokkos::Cuda[ 0 ] TITAN Xp capability 6.1, Total Global Memory: 11.91 G, Shared Memory per Block: 48 K : Selected

#InputFile:
#=========================================================
# 3d Lennard-Jones melt 

units lj 
atom_style atomic 

newton off 
lattice fcc 0.8442 
region box block 0 160 0 160 0 160 
create_box 1 box 
create_atoms 1 box 
mass 1 2.0 

velocity all create 1.4 87287 loop geom 

pair_style lj/cut 2.5 
pair_coeff 1 1 1.0 1.0 2.5 

neighbor 0.3 bin 
neigh_modify delay 0 every 20 check no 
fix 1 all nve 
thermo 10 

run 1000 
#=========================================================

Using: ForceLJNeighFull Neighbor2D CommMPI BinningKKSort
Atoms: 16384000 16384000

#Timestep Temperature PotE ETot Time Atomsteps/s
0 1.400000 -6.332812 -4.232812 0.000000 0.000000e+00
10 1.267050 -6.133727 -4.233153 10.406589 1.574387e+07
20 0.772060 -5.390506 -4.232416 23.495518 1.251745e+07
30 0.620836 -5.163999 -4.232746 34.276741 1.519679e+07
40 0.717897 -5.309801 -4.232956 47.632341 1.226751e+07
50 0.714219 -5.304150 -4.232821 58.367579 1.526189e+07
60 0.708659 -5.295813 -4.232825 71.710740 1.227895e+07
70 0.717513 -5.309106 -4.232837 82.491392 1.519760e+07
80 0.726147 -5.322056 -4.232835 95.876843 1.224015e+07
90 0.730606 -5.328739 -4.232830 106.676268 1.517118e+07
100 0.733035 -5.332379 -4.232827 120.078038 1.222525e+07
110 0.734786 -5.335005 -4.232826 130.879258 1.516866e+07
120 0.736257 -5.337210 -4.232825 144.281095 1.222519e+07
130 0.737380 -5.338894 -4.232824 155.075984 1.517755e+07
140 0.738246 -5.340193 -4.232824 168.477584 1.222541e+07
150 0.739020 -5.341354 -4.232824 179.267106 1.518510e+07
160 0.739647 -5.342294 -4.232823 192.655926 1.223708e+07
170 0.740063 -5.342918 -4.232823 203.441132 1.519118e+07
180 0.740259 -5.343212 -4.232823 216.839735 1.222814e+07
190 0.740322 -5.343306 -4.232823 227.620539 1.519738e+07
200 0.740314 -5.343293 -4.232822 241.016136 1.223088e+07
210 0.740437 -5.343478 -4.232822 251.795426 1.519952e+07
220 0.740398 -5.343419 -4.232822 265.195309 1.222697e+07
230 0.740185 -5.343100 -4.232822 275.974931 1.519905e+07
240 0.739764 -5.342468 -4.232822 289.359330 1.224112e+07
250 0.739499 -5.342071 -4.232822 300.139188 1.519872e+07
260 0.739279 -5.341741 -4.232822 313.535778 1.222998e+07
270 0.738904 -5.341179 -4.232822 324.316057 1.519812e+07
280 0.738491 -5.340559 -4.232822 337.716828 1.222616e+07
290 0.738081 -5.339944 -4.232822 348.498189 1.519660e+07
300 0.737660 -5.339313 -4.232822 361.896173 1.222871e+07
310 0.737379 -5.338891 -4.232823 372.677872 1.519612e+07
320 0.737097 -5.338468 -4.232823 386.073701 1.223067e+07
330 0.736651 -5.337799 -4.232822 396.855374 1.519616e+07
340 0.736237 -5.337179 -4.232823 410.257420 1.222500e+07
350 0.735631 -5.336269 -4.232823 421.039431 1.519568e+07
360 0.735088 -5.335454 -4.232822 434.433251 1.223251e+07
370 0.734847 -5.335093 -4.232823 445.216179 1.519439e+07
380 0.734393 -5.334412 -4.232823 458.614741 1.222818e+07
390 0.733903 -5.333677 -4.232823 469.399410 1.519193e+07
400 0.733390 -5.332908 -4.232823 482.797809 1.222833e+07
410 0.732848 -5.332095 -4.232823 493.584404 1.518922e+07
420 0.732288 -5.331254 -4.232823 506.995301 1.221693e+07
430 0.731792 -5.330511 -4.232823 517.783192 1.518740e+07
440 0.731328 -5.329815 -4.232823 531.190815 1.221991e+07
450 0.730928 -5.329215 -4.232823 541.979141 1.518679e+07
460 0.730331 -5.328319 -4.232823 555.397216 1.221039e+07
470 0.729847 -5.327594 -4.232823 566.187483 1.518405e+07
480 0.729330 -5.326818 -4.232823 579.589924 1.222464e+07
490 0.728749 -5.325947 -4.232823 590.381395 1.518236e+07
500 0.728307 -5.325283 -4.232824 603.795174 1.221431e+07
510 0.727853 -5.324602 -4.232823 614.588533 1.517970e+07
520 0.727315 -5.323795 -4.232823 627.998052 1.221819e+07
530 0.726704 -5.322878 -4.232823 638.792709 1.517788e+07
540 0.726218 -5.322150 -4.232823 652.216826 1.220490e+07
550 0.725663 -5.321318 -4.232823 663.009727 1.518035e+07
560 0.725051 -5.320399 -4.232823 676.318306 1.231086e+07
570 0.724722 -5.319907 -4.232824 687.027231 1.529939e+07
580 0.724129 -5.319017 -4.232823 700.342723 1.230446e+07
590 0.723559 -5.318162 -4.232823 711.052343 1.529840e+07
600 0.723120 -5.317504 -4.232824 724.378164 1.229493e+07
610 0.722532 -5.316621 -4.232824 735.088370 1.529756e+07
620 0.721955 -5.315755 -4.232823 748.416732 1.229258e+07
630 0.721458 -5.315010 -4.232823 759.129881 1.529335e+07
640 0.721046 -5.314392 -4.232823 772.459056 1.229183e+07
650 0.720543 -5.313638 -4.232824 783.172871 1.529240e+07
660 0.719853 -5.312603 -4.232823 796.496824 1.229665e+07
670 0.719403 -5.311928 -4.232823 807.211420 1.529129e+07
680 0.718974 -5.311285 -4.232824 820.539429 1.229291e+07
690 0.718136 -5.310027 -4.232823 831.256503 1.528775e+07
700 0.717525 -5.309111 -4.232824 844.576750 1.230007e+07
710 0.717047 -5.308394 -4.232823 855.294043 1.528744e+07
720 0.716568 -5.307675 -4.232823 868.616487 1.229804e+07
730 0.716099 -5.306972 -4.232824 879.336435 1.528366e+07
740 0.715492 -5.306061 -4.232823 892.673988 1.228411e+07
750 0.714976 -5.305287 -4.232824 903.394655 1.528263e+07
760 0.714443 -5.304488 -4.232824 916.735921 1.228069e+07
770 0.713977 -5.303788 -4.232823 927.457000 1.528204e+07
780 0.713638 -5.303281 -4.232824 940.792742 1.228578e+07
790 0.713152 -5.302551 -4.232823 951.515157 1.528014e+07
800 0.712705 -5.301881 -4.232824 964.859151 1.227818e+07
810 0.712180 -5.301094 -4.232824 975.582674 1.527856e+07
820 0.711557 -5.300160 -4.232824 988.914825 1.228909e+07
830 0.710920 -5.299204 -4.232824 999.640158 1.527598e+07
840 0.710322 -5.298307 -4.232823 1012.974965 1.228664e+07
850 0.709907 -5.297683 -4.232823 1023.701091 1.527485e+07
860 0.709583 -5.297198 -4.232824 1037.038526 1.228422e+07
870 0.709076 -5.296438 -4.232824 1047.764751 1.527471e+07
880 0.708523 -5.295608 -4.232823 1061.114035 1.227332e+07
890 0.707954 -5.294754 -4.232823 1071.842520 1.527150e+07
900 0.707500 -5.294073 -4.232823 1085.198103 1.226753e+07
910 0.707225 -5.293661 -4.232824 1095.926933 1.527100e+07
920 0.706554 -5.292654 -4.232823 1109.275406 1.227406e+07
930 0.706104 -5.291979 -4.232823 1120.006437 1.526787e+07
940 0.705622 -5.291255 -4.232823 1133.356084 1.227298e+07
950 0.705257 -5.290709 -4.232823 1144.088536 1.526585e+07
960 0.704860 -5.290114 -4.232823 1157.432922 1.227782e+07
970 0.704218 -5.289150 -4.232823 1168.166466 1.526430e+07
980 0.703663 -5.288318 -4.232823 1181.515689 1.227337e+07
990 0.703195 -5.287615 -4.232823 1192.249070 1.526453e+07
1000 0.702793 -5.287013 -4.232823 1205.613120 1.225976e+07

#Procs Particles | Time T_Force T_Neigh T_Comm T_Other | Steps/s Atomsteps/s Atomsteps/(proc*s)
1 16384000 | 1205.613127 849.434620 123.244771 18.549443 214.384000 | 0.829453 1.358977e+07 1.358977e+07 PERFORMANCE
1223195
start time: 01:19:51
