macro  KOKKOS_ENABLE_CUDA      : defined
macro  CUDA_VERSION          = 10000 = version 10.0
Kokkos::Cuda[ 0 ] TITAN Xp capability 6.1, Total Global Memory: 11.91 G, Shared Memory per Block: 48 K : Selected

#InputFile:
#=========================================================
# 3d Lennard-Jones melt 

units lj 
atom_style atomic 

newton off 
lattice fcc 0.8442 
region box block 0 160 0 160 0 160 
create_box 1 box 
create_atoms 1 box 
mass 1 2.0 

velocity all create 1.4 87287 loop geom 

pair_style lj/cut 2.5 
pair_coeff 1 1 1.0 1.0 2.5 

neighbor 0.3 bin 
neigh_modify delay 0 every 20 check no 
fix 1 all nve 
thermo 10 

run 1000 
#=========================================================

Using: ForceLJNeighFull Neighbor2D CommMPI BinningKKSort
Atoms: 16384000 16384000

#Timestep Temperature PotE ETot Time Atomsteps/s
0 1.400000 -6.332812 -4.232812 0.000000 0.000000e+00
10 1.267050 -6.133727 -4.233153 1.643290 9.970241e+07
20 0.772060 -5.390506 -4.232416 3.828028 7.499300e+07
30 0.620836 -5.163999 -4.232746 5.574887 9.379118e+07
40 0.717897 -5.309801 -4.232956 7.828452 7.270259e+07
50 0.714219 -5.304150 -4.232821 9.599764 9.249643e+07
60 0.708659 -5.295813 -4.232825 11.863499 7.237595e+07
70 0.717513 -5.309106 -4.232837 13.648276 9.179856e+07
80 0.726147 -5.322056 -4.232835 15.919182 7.214744e+07
90 0.730606 -5.328739 -4.232830 17.706911 9.164700e+07
100 0.733035 -5.332379 -4.232827 19.980032 7.207711e+07
110 0.734786 -5.335005 -4.232826 21.771065 9.147799e+07
120 0.736257 -5.337210 -4.232825 24.046803 7.199419e+07
130 0.737380 -5.338894 -4.232824 25.837752 9.148222e+07
140 0.738246 -5.340193 -4.232824 28.114415 7.196498e+07
150 0.739020 -5.341354 -4.232824 29.905541 9.147317e+07
160 0.739647 -5.342294 -4.232823 32.180976 7.200381e+07
170 0.740063 -5.342918 -4.232823 33.970446 9.155785e+07
180 0.740259 -5.343212 -4.232823 36.250125 7.186977e+07
190 0.740322 -5.343306 -4.232823 38.041334 9.146903e+07
200 0.740314 -5.343293 -4.232822 40.321978 7.183930e+07
210 0.740437 -5.343478 -4.232822 42.113120 9.147238e+07
220 0.740398 -5.343419 -4.232822 44.389889 7.196162e+07
230 0.740185 -5.343100 -4.232822 46.180189 9.151537e+07
240 0.739764 -5.342468 -4.232822 48.458247 7.192093e+07
250 0.739499 -5.342071 -4.232822 50.249311 9.147643e+07
260 0.739279 -5.341741 -4.232822 52.532900 7.174664e+07
270 0.738904 -5.341179 -4.232822 54.323079 9.152162e+07
280 0.738491 -5.340559 -4.232822 56.598469 7.200523e+07
290 0.738081 -5.339944 -4.232822 58.391778 9.136182e+07
300 0.737660 -5.339313 -4.232822 60.670972 7.188507e+07
310 0.737379 -5.338891 -4.232823 62.461256 9.151620e+07
320 0.737097 -5.338468 -4.232823 64.740823 7.187332e+07
330 0.736651 -5.337799 -4.232822 66.534011 9.136796e+07
340 0.736237 -5.337179 -4.232823 68.810378 7.197436e+07
350 0.735631 -5.336269 -4.232823 70.600826 9.150781e+07
360 0.735088 -5.335454 -4.232822 72.877093 7.197750e+07
370 0.734847 -5.335093 -4.232823 74.669835 9.139071e+07
380 0.734393 -5.334412 -4.232823 76.956597 7.164717e+07
390 0.733903 -5.333677 -4.232823 78.748768 9.141984e+07
400 0.733390 -5.332908 -4.232823 81.031167 7.178412e+07
410 0.732848 -5.332095 -4.232823 82.822301 9.147277e+07
420 0.732288 -5.331254 -4.232823 85.099451 7.194958e+07
430 0.731792 -5.330511 -4.232823 86.890965 9.145337e+07
440 0.731328 -5.329815 -4.232823 89.175860 7.170572e+07
450 0.730928 -5.329215 -4.232823 90.969433 9.134838e+07
460 0.730331 -5.328319 -4.232823 93.252633 7.175892e+07
470 0.729847 -5.327594 -4.232823 95.046803 9.131799e+07
480 0.729330 -5.326818 -4.232823 97.333859 7.163794e+07
490 0.728749 -5.325947 -4.232823 99.127432 9.134840e+07
500 0.728307 -5.325283 -4.232824 101.410668 7.175781e+07
510 0.727853 -5.324602 -4.232823 103.207106 9.120268e+07
520 0.727315 -5.323795 -4.232823 105.491622 7.171760e+07
530 0.726704 -5.322878 -4.232823 107.292037 9.100124e+07
540 0.726218 -5.322150 -4.232823 109.582543 7.153005e+07
550 0.725663 -5.321318 -4.232823 111.382545 9.102214e+07
560 0.725051 -5.320399 -4.232823 113.672267 7.155452e+07
570 0.724722 -5.319907 -4.232824 115.474008 9.093426e+07
580 0.724129 -5.319017 -4.232823 117.764451 7.153203e+07
590 0.723559 -5.318162 -4.232823 119.569118 9.078681e+07
600 0.723120 -5.317504 -4.232824 121.872166 7.114050e+07
610 0.722532 -5.316621 -4.232824 123.677791 9.073867e+07
620 0.721955 -5.315755 -4.232823 125.971454 7.143159e+07
630 0.721458 -5.315010 -4.232823 127.774164 9.088538e+07
640 0.721046 -5.314392 -4.232823 130.071437 7.131937e+07
650 0.720543 -5.313638 -4.232824 131.873847 9.090051e+07
660 0.719853 -5.312603 -4.232823 134.167104 7.144423e+07
670 0.719403 -5.311928 -4.232823 135.971256 9.081274e+07
680 0.718974 -5.311285 -4.232824 138.267013 7.136644e+07
690 0.718136 -5.310027 -4.232823 140.069336 9.090492e+07
700 0.717525 -5.309111 -4.232824 142.373108 7.111815e+07
710 0.717047 -5.308394 -4.232823 144.177276 9.081195e+07
720 0.716568 -5.307675 -4.232823 146.481154 7.111485e+07
730 0.716099 -5.306972 -4.232824 148.288819 9.063628e+07
740 0.715492 -5.306061 -4.232823 150.587527 7.127481e+07
750 0.714976 -5.305287 -4.232824 152.393163 9.073814e+07
760 0.714443 -5.304488 -4.232824 154.695239 7.117053e+07
770 0.713977 -5.303788 -4.232823 156.501367 9.071342e+07
780 0.713638 -5.303281 -4.232824 158.792480 7.151109e+07
790 0.713152 -5.302551 -4.232823 160.598791 9.070420e+07
800 0.712705 -5.301881 -4.232824 162.895906 7.132425e+07
810 0.712180 -5.301094 -4.232824 164.703740 9.062780e+07
820 0.711557 -5.300160 -4.232824 167.004851 7.120037e+07
830 0.710920 -5.299204 -4.232824 168.807790 9.087384e+07
840 0.710322 -5.298307 -4.232823 171.115809 7.098730e+07
850 0.709907 -5.297683 -4.232823 172.921294 9.074571e+07
860 0.709583 -5.297198 -4.232824 175.220371 7.126337e+07
870 0.709076 -5.296438 -4.232824 177.029638 9.055603e+07
880 0.708523 -5.295608 -4.232823 179.328009 7.128525e+07
890 0.707954 -5.294754 -4.232823 181.136665 9.058665e+07
900 0.707500 -5.294073 -4.232823 183.435385 7.127443e+07
910 0.707225 -5.293661 -4.232824 185.240125 9.078317e+07
920 0.706554 -5.292654 -4.232823 187.540440 7.122504e+07
930 0.706104 -5.291979 -4.232823 189.348336 9.062468e+07
940 0.705622 -5.291255 -4.232823 191.648426 7.123198e+07
950 0.705257 -5.290709 -4.232823 193.456143 9.063369e+07
960 0.704860 -5.290114 -4.232823 195.765106 7.095826e+07
970 0.704218 -5.289150 -4.232823 197.574719 9.053867e+07
980 0.703663 -5.288318 -4.232823 199.879004 7.110233e+07
990 0.703195 -5.287615 -4.232823 201.688740 9.053253e+07
1000 0.702793 -5.287013 -4.232823 203.986538 7.130306e+07

#Procs Particles | Time T_Force T_Neigh T_Comm T_Other | Steps/s Atomsteps/s Atomsteps/(proc*s)
1 16384000 | 203.986545 133.262637 21.273676 8.125722 41.324255 | 4.902284 8.031902e+07 8.031902e+07 PERFORMANCE
212856
start time: 00:47:45
