macro  KOKKOS_ENABLE_CUDA      : defined
macro  CUDA_VERSION          = 10000 = version 10.0
Kokkos::Cuda[ 0 ] TITAN Xp capability 6.1, Total Global Memory: 11.91 G, Shared Memory per Block: 48 K : Selected

#InputFile:
#=========================================================
# 3d Lennard-Jones melt 

units lj 
atom_style atomic 

newton off 
lattice fcc 0.8442 
region box block 0 160 0 160 0 160 
create_box 1 box 
create_atoms 1 box 
mass 1 2.0 

velocity all create 1.4 87287 loop geom 

pair_style lj/cut 2.5 
pair_coeff 1 1 1.0 1.0 2.5 

neighbor 0.3 bin 
neigh_modify delay 0 every 20 check no 
fix 1 all nve 
thermo 10 

run 1000 
#=========================================================

Using: ForceLJNeighFull Neighbor2D CommMPI BinningKKSort
Atoms: 16384000 16384000

#Timestep Temperature PotE ETot Time Atomsteps/s
0 1.400000 -6.332812 -4.232812 0.000000 0.000000e+00
10 1.267050 -6.133727 -4.233153 2.960171 5.534815e+07
20 0.772060 -5.390506 -4.232416 6.774597 4.295273e+07
30 0.620836 -5.163999 -4.232746 9.838623 5.347212e+07
40 0.717897 -5.309801 -4.232956 13.716061 4.225471e+07
50 0.714219 -5.304150 -4.232821 16.766956 5.370228e+07
60 0.708659 -5.295813 -4.232825 20.644478 4.225379e+07
70 0.717513 -5.309106 -4.232837 23.708617 5.347020e+07
80 0.726147 -5.322056 -4.232835 27.599121 4.211277e+07
90 0.730606 -5.328739 -4.232830 30.668393 5.338074e+07
100 0.733035 -5.332379 -4.232827 34.549894 4.221048e+07
110 0.734786 -5.335005 -4.232826 37.619624 5.337276e+07
120 0.736257 -5.337210 -4.232825 41.512720 4.208476e+07
130 0.737380 -5.338894 -4.232824 44.580935 5.339912e+07
140 0.738246 -5.340193 -4.232824 48.473948 4.208565e+07
150 0.739020 -5.341354 -4.232824 51.540875 5.342155e+07
160 0.739647 -5.342294 -4.232823 55.442657 4.199107e+07
170 0.740063 -5.342918 -4.232823 58.508341 5.344322e+07
180 0.740259 -5.343212 -4.232823 62.406150 4.203387e+07
190 0.740322 -5.343306 -4.232823 65.471315 5.345225e+07
200 0.740314 -5.343293 -4.232822 69.360431 4.212783e+07
210 0.740437 -5.343478 -4.232822 72.424974 5.346311e+07
220 0.740398 -5.343419 -4.232822 76.309848 4.217383e+07
230 0.740185 -5.343100 -4.232822 79.374041 5.346922e+07
240 0.739764 -5.342468 -4.232822 83.259964 4.216245e+07
250 0.739499 -5.342071 -4.232822 86.323784 5.347571e+07
260 0.739279 -5.341741 -4.232822 90.214328 4.211237e+07
270 0.738904 -5.341179 -4.232822 93.278408 5.347119e+07
280 0.738491 -5.340559 -4.232822 97.170213 4.209872e+07
290 0.738081 -5.339944 -4.232822 100.234501 5.346755e+07
300 0.737660 -5.339313 -4.232822 104.121576 4.214995e+07
310 0.737379 -5.338891 -4.232823 107.186210 5.346153e+07
320 0.737097 -5.338468 -4.232823 111.066380 4.222496e+07
330 0.736651 -5.337799 -4.232822 114.131344 5.345576e+07
340 0.736237 -5.337179 -4.232823 118.027051 4.205655e+07
350 0.735631 -5.336269 -4.232823 121.092134 5.345370e+07
360 0.735088 -5.335454 -4.232822 124.986794 4.206786e+07
370 0.734847 -5.335093 -4.232823 128.052313 5.344609e+07
380 0.734393 -5.334412 -4.232823 131.939146 4.215257e+07
390 0.733903 -5.333677 -4.232823 135.004967 5.344082e+07
400 0.733390 -5.332908 -4.232823 138.900555 4.205784e+07
410 0.732848 -5.332095 -4.232823 141.966605 5.343683e+07
420 0.732288 -5.331254 -4.232823 145.868744 4.198723e+07
430 0.731792 -5.330511 -4.232823 148.934984 5.343353e+07
440 0.731328 -5.329815 -4.232823 152.824543 4.212302e+07
450 0.730928 -5.329215 -4.232823 155.891334 5.342393e+07
460 0.730331 -5.328319 -4.232823 159.780051 4.213214e+07
470 0.729847 -5.327594 -4.232823 162.847280 5.341629e+07
480 0.729330 -5.326818 -4.232823 166.736515 4.212654e+07
490 0.728749 -5.325947 -4.232823 169.804025 5.341139e+07
500 0.728307 -5.325283 -4.232824 173.688510 4.217805e+07
510 0.727853 -5.324602 -4.232823 176.756138 5.340934e+07
520 0.727315 -5.323795 -4.232823 180.657612 4.199439e+07
530 0.726704 -5.322878 -4.232823 183.725606 5.340296e+07
540 0.726218 -5.322150 -4.232823 187.625787 4.200831e+07
550 0.725663 -5.321318 -4.232823 190.694578 5.338910e+07
560 0.725051 -5.320399 -4.232823 194.589706 4.206281e+07
570 0.724722 -5.319907 -4.232824 197.658686 5.338582e+07
580 0.724129 -5.319017 -4.232823 201.554030 4.206046e+07
590 0.723559 -5.318162 -4.232823 204.623234 5.338192e+07
600 0.723120 -5.317504 -4.232824 208.530319 4.193408e+07
610 0.722532 -5.316621 -4.232824 211.599942 5.337462e+07
620 0.721955 -5.315755 -4.232823 215.498599 4.202473e+07
630 0.721458 -5.315010 -4.232823 218.568562 5.336871e+07
640 0.721046 -5.314392 -4.232823 222.463444 4.206546e+07
650 0.720543 -5.313638 -4.232824 225.533764 5.336251e+07
660 0.719853 -5.312603 -4.232823 229.437212 4.197316e+07
670 0.719403 -5.311928 -4.232823 232.507697 5.335964e+07
680 0.718974 -5.311285 -4.232824 236.398712 4.210726e+07
690 0.718136 -5.310027 -4.232823 239.469508 5.335426e+07
700 0.717525 -5.309111 -4.232824 243.376790 4.193196e+07
710 0.717047 -5.308394 -4.232823 246.447852 5.334964e+07
720 0.716568 -5.307675 -4.232823 250.351688 4.196897e+07
730 0.716099 -5.306972 -4.232824 253.423177 5.334221e+07
740 0.715492 -5.306061 -4.232823 257.325422 4.198608e+07
750 0.714976 -5.305287 -4.232824 260.396899 5.334242e+07
760 0.714443 -5.304488 -4.232824 264.289047 4.209500e+07
770 0.713977 -5.303788 -4.232823 267.361042 5.333342e+07
780 0.713638 -5.303281 -4.232824 271.264062 4.197776e+07
790 0.713152 -5.302551 -4.232823 274.336253 5.333001e+07
800 0.712705 -5.301881 -4.232824 278.235342 4.202007e+07
810 0.712180 -5.301094 -4.232824 281.308025 5.332148e+07
820 0.711557 -5.300160 -4.232824 285.202217 4.207291e+07
830 0.710920 -5.299204 -4.232824 288.275156 5.331704e+07
840 0.710322 -5.298307 -4.232823 292.183562 4.191990e+07
850 0.709907 -5.297683 -4.232823 295.256853 5.331092e+07
860 0.709583 -5.297198 -4.232824 299.158309 4.199458e+07
870 0.709076 -5.296438 -4.232824 302.231949 5.330488e+07
880 0.708523 -5.295608 -4.232823 306.142832 4.189335e+07
890 0.707954 -5.294754 -4.232823 309.216286 5.330809e+07
900 0.707500 -5.294073 -4.232823 313.127704 4.188763e+07
910 0.707225 -5.293661 -4.232824 316.201613 5.330020e+07
920 0.706554 -5.292654 -4.232823 320.107373 4.194831e+07
930 0.706104 -5.291979 -4.232823 323.181895 5.328958e+07
940 0.705622 -5.291255 -4.232823 327.087537 4.194956e+07
950 0.705257 -5.290709 -4.232823 330.162287 5.328564e+07
960 0.704860 -5.290114 -4.232823 334.075615 4.186717e+07
970 0.704218 -5.289150 -4.232823 337.150149 5.328938e+07
980 0.703663 -5.288318 -4.232823 341.064935 4.185159e+07
990 0.703195 -5.287615 -4.232823 344.140324 5.327456e+07
1000 0.702793 -5.287013 -4.232823 348.051354 4.189177e+07

#Procs Particles | Time T_Force T_Neigh T_Comm T_Other | Steps/s Atomsteps/s Atomsteps/(proc*s)
1 16384000 | 348.051362 236.767641 36.712054 12.066509 62.504901 | 2.873139 4.707351e+07 4.707351e+07 PERFORMANCE
358394
start time: 05:46:47
