macro  KOKKOS_ENABLE_CUDA      : defined
macro  CUDA_VERSION          = 10000 = version 10.0
Kokkos::Cuda[ 0 ] TITAN Xp capability 6.1, Total Global Memory: 11.91 G, Shared Memory per Block: 48 K : Selected

#InputFile:
#=========================================================
# 3d Lennard-Jones melt 

units lj 
atom_style atomic 

newton off 
lattice fcc 0.8442 
region box block 0 160 0 160 0 160 
create_box 1 box 
create_atoms 1 box 
mass 1 2.0 

velocity all create 1.4 87287 loop geom 

pair_style lj/cut 2.5 
pair_coeff 1 1 1.0 1.0 2.5 

neighbor 0.3 bin 
neigh_modify delay 0 every 20 check no 
fix 1 all nve 
thermo 10 

run 1000 
#=========================================================

Using: ForceLJNeighFull Neighbor2D CommMPI BinningKKSort
Atoms: 16384000 16384000

#Timestep Temperature PotE ETot Time Atomsteps/s
0 1.400000 -6.332812 -4.232812 0.000000 0.000000e+00
10 1.267050 -6.133727 -4.233153 20.586864 7.958473e+06
20 0.772060 -5.390506 -4.232416 46.357823 6.357544e+06
30 0.620836 -5.163999 -4.232746 67.693412 7.679188e+06
40 0.717897 -5.309801 -4.232956 94.008873 6.225997e+06
50 0.714219 -5.304150 -4.232821 115.252594 7.712396e+06
60 0.708659 -5.295813 -4.232825 141.527876 6.235518e+06
70 0.717513 -5.309106 -4.232837 162.865288 7.678532e+06
80 0.726147 -5.322056 -4.232835 189.220616 6.216580e+06
90 0.730606 -5.328739 -4.232830 210.592941 7.665988e+06
100 0.733035 -5.332379 -4.232827 236.998108 6.204846e+06
110 0.734786 -5.335005 -4.232826 258.376313 7.663880e+06
120 0.736257 -5.337210 -4.232825 284.783053 6.204477e+06
130 0.737380 -5.338894 -4.232824 306.148154 7.668581e+06
140 0.738246 -5.340193 -4.232824 332.549588 6.205724e+06
150 0.739020 -5.341354 -4.232824 353.906539 7.671507e+06
160 0.739647 -5.342294 -4.232823 380.294790 6.208824e+06
170 0.740063 -5.342918 -4.232823 401.639749 7.675817e+06
180 0.740259 -5.343212 -4.232823 428.034945 6.207190e+06
190 0.740322 -5.343306 -4.232823 449.374687 7.677694e+06
200 0.740314 -5.343293 -4.232822 475.753014 6.211160e+06
210 0.740437 -5.343478 -4.232822 497.092374 7.677831e+06
220 0.740398 -5.343419 -4.232822 523.471308 6.211017e+06
230 0.740185 -5.343100 -4.232822 544.807524 7.678962e+06
240 0.739764 -5.342468 -4.232822 571.179233 6.212718e+06
250 0.739499 -5.342071 -4.232822 592.514648 7.679251e+06
260 0.739279 -5.341741 -4.232822 618.893096 6.211131e+06
270 0.738904 -5.341179 -4.232822 640.229298 7.678967e+06
280 0.738491 -5.340559 -4.232822 666.616871 6.208983e+06
290 0.738081 -5.339944 -4.232822 687.952047 7.679336e+06
300 0.737660 -5.339313 -4.232822 714.340247 6.208836e+06
310 0.737379 -5.338891 -4.232823 735.679525 7.677861e+06
320 0.737097 -5.338468 -4.232823 762.073311 6.207522e+06
330 0.736651 -5.337799 -4.232822 783.413461 7.677547e+06
340 0.736237 -5.337179 -4.232823 809.818832 6.204798e+06
350 0.735631 -5.336269 -4.232823 831.162266 7.676365e+06
360 0.735088 -5.335454 -4.232822 857.569264 6.204416e+06
370 0.734847 -5.335093 -4.232823 878.915413 7.675389e+06
380 0.734393 -5.334412 -4.232823 905.313587 6.206490e+06
390 0.733903 -5.333677 -4.232823 926.663668 7.673975e+06
400 0.733390 -5.332908 -4.232823 953.081871 6.201784e+06
410 0.732848 -5.332095 -4.232823 974.431563 7.674115e+06
420 0.732288 -5.331254 -4.232823 1000.870029 6.197031e+06
430 0.731792 -5.330511 -4.232823 1022.225307 7.672108e+06
440 0.731328 -5.329815 -4.232823 1048.656933 6.198635e+06
450 0.730928 -5.329215 -4.232823 1070.013422 7.671673e+06
460 0.730331 -5.328319 -4.232823 1096.411270 6.206567e+06
470 0.729847 -5.327594 -4.232823 1117.768338 7.671465e+06
480 0.729330 -5.326818 -4.232823 1144.199123 6.198832e+06
490 0.728749 -5.325947 -4.232823 1165.558467 7.670647e+06
500 0.728307 -5.325283 -4.232824 1191.973572 6.202512e+06
510 0.727853 -5.324602 -4.232823 1213.336215 7.669464e+06
520 0.727315 -5.323795 -4.232823 1239.767445 6.198727e+06
530 0.726704 -5.322878 -4.232823 1261.133041 7.668403e+06
540 0.726218 -5.322150 -4.232823 1287.575619 6.196068e+06
550 0.725663 -5.321318 -4.232823 1308.945000 7.667044e+06
560 0.725051 -5.320399 -4.232823 1335.389605 6.195593e+06
570 0.724722 -5.319907 -4.232824 1356.759857 7.666732e+06
580 0.724129 -5.319017 -4.232823 1383.201821 6.196211e+06
590 0.723559 -5.318162 -4.232823 1404.573596 7.666186e+06
600 0.723120 -5.317504 -4.232824 1431.017001 6.195874e+06
610 0.722532 -5.316621 -4.232824 1452.391973 7.665040e+06
620 0.721955 -5.315755 -4.232823 1478.854857 6.191313e+06
630 0.721458 -5.315010 -4.232823 1500.230749 7.664709e+06
640 0.721046 -5.314392 -4.232823 1526.680471 6.194394e+06
650 0.720543 -5.313638 -4.232824 1548.060454 7.663243e+06
660 0.719853 -5.312603 -4.232823 1574.531372 6.189434e+06
670 0.719403 -5.311928 -4.232823 1595.912590 7.662800e+06
680 0.718974 -5.311285 -4.232824 1622.375797 6.191237e+06
690 0.718136 -5.310027 -4.232823 1643.760760 7.661458e+06
700 0.717525 -5.309111 -4.232824 1670.224811 6.191040e+06
710 0.717047 -5.308394 -4.232823 1691.610058 7.661356e+06
720 0.716568 -5.307675 -4.232823 1718.095742 6.185983e+06
730 0.716099 -5.306972 -4.232824 1739.482533 7.660803e+06
740 0.715492 -5.306061 -4.232823 1765.961710 6.187503e+06
750 0.714976 -5.305287 -4.232824 1787.354558 7.658635e+06
760 0.714443 -5.304488 -4.232824 1813.829889 6.188402e+06
770 0.713977 -5.303788 -4.232823 1835.224368 7.658051e+06
780 0.713638 -5.303281 -4.232824 1861.711131 6.185731e+06
790 0.713152 -5.302551 -4.232823 1883.106209 7.657836e+06
800 0.712705 -5.301881 -4.232824 1909.613035 6.181049e+06
810 0.712180 -5.301094 -4.232824 1931.013009 7.656084e+06
820 0.711557 -5.300160 -4.232824 1957.521774 6.180597e+06
830 0.710920 -5.299204 -4.232824 1978.924272 7.655181e+06
840 0.710322 -5.298307 -4.232823 2005.403530 6.187484e+06
850 0.709907 -5.297683 -4.232823 2026.805571 7.655345e+06
860 0.709583 -5.297198 -4.232824 2053.316114 6.180183e+06
870 0.709076 -5.296438 -4.232824 2074.722712 7.653715e+06
880 0.708523 -5.295608 -4.232823 2101.223958 6.182351e+06
890 0.707954 -5.294754 -4.232823 2122.630328 7.653796e+06
900 0.707500 -5.294073 -4.232823 2149.143185 6.179643e+06
910 0.707225 -5.293661 -4.232824 2170.550908 7.653313e+06
920 0.706554 -5.292654 -4.232823 2197.086278 6.174400e+06
930 0.706104 -5.291979 -4.232823 2218.493017 7.653665e+06
940 0.705622 -5.291255 -4.232823 2245.014940 6.177531e+06
950 0.705257 -5.290709 -4.232823 2266.425246 7.652390e+06
960 0.704860 -5.290114 -4.232823 2292.949776 6.176924e+06
970 0.704218 -5.289150 -4.232823 2314.364177 7.650926e+06
980 0.703663 -5.288318 -4.232823 2340.895488 6.175345e+06
990 0.703195 -5.287615 -4.232823 2362.310365 7.650756e+06
1000 0.702793 -5.287013 -4.232823 2388.843263 6.174976e+06

#Procs Particles | Time T_Force T_Neigh T_Comm T_Other | Steps/s Atomsteps/s Atomsteps/(proc*s)
1 16384000 | 2388.843270 1688.651847 243.179326 35.119724 421.892023 | 0.418613 6.858550e+06 6.858550e+06 PERFORMANCE
2416296
start time: 10:54:41
