macro  KOKKOS_ENABLE_CUDA      : defined
macro  CUDA_VERSION          = 10000 = version 10.0
Kokkos::Cuda[ 0 ] TITAN Xp capability 6.1, Total Global Memory: 11.91 G, Shared Memory per Block: 48 K : Selected

#InputFile:
#=========================================================
# 3d Lennard-Jones melt 

units lj 
atom_style atomic 

newton off 
lattice fcc 0.8442 
region box block 0 160 0 160 0 160 
create_box 1 box 
create_atoms 1 box 
mass 1 2.0 

velocity all create 1.4 87287 loop geom 

pair_style lj/cut 2.5 
pair_coeff 1 1 1.0 1.0 2.5 

neighbor 0.3 bin 
neigh_modify delay 0 every 20 check no 

fix 1 all nve 

timestep 0.005 
thermo 100 

run 1000 
#=========================================================

Using: ForceLJNeighFull Neighbor2D CommMPI BinningKKSort
Atoms: 16384000 16384000

#Timestep Temperature PotE ETot Time Atomsteps/s
0 1.400000 -6.332812 -4.232812 0.000000 0.000000e+00
100 0.733035 -5.332379 -4.232827 200.139791 8.186278e+06
200 0.740314 -5.343293 -4.232822 401.807063 8.124273e+06
300 0.737660 -5.339313 -4.232822 603.392030 8.127590e+06
400 0.733390 -5.332908 -4.232823 805.056751 8.124376e+06
500 0.728307 -5.325283 -4.232824 1006.884536 8.117812e+06
600 0.723120 -5.317504 -4.232824 1208.863518 8.111735e+06
700 0.717525 -5.309111 -4.232824 1410.997891 8.105499e+06
800 0.712705 -5.301881 -4.232824 1613.215714 8.102154e+06
900 0.707500 -5.294073 -4.232823 1815.589571 8.095907e+06
1000 0.702793 -5.287013 -4.232823 2018.083005 8.091127e+06

#Procs Particles | Time T_Force T_Neigh T_Comm T_Other | Steps/s Atomsteps/s Atomsteps/(proc*s)
1 16384000 | 2018.083012 1688.879385 243.219967 35.970133 50.013168 | 0.495520 8.118596e+06 8.118596e+06 PERFORMANCE
2045614
start time: 07:43:19
