macro  KOKKOS_ENABLE_CUDA      : defined
macro  CUDA_VERSION          = 10000 = version 10.0
Kokkos::Cuda[ 0 ] TITAN Xp capability 6.1, Total Global Memory: 11.91 G, Shared Memory per Block: 48 K : Selected

#InputFile:
#=========================================================
# 3d Lennard-Jones melt 

units lj 
atom_style atomic 

newton off 
lattice fcc 0.8442 
region box block 0 160 0 160 0 160 
create_box 1 box 
create_atoms 1 box 
mass 1 2.0 

velocity all create 1.4 87287 loop geom 

pair_style lj/cut 2.5 
pair_coeff 1 1 1.0 1.0 2.5 

neighbor 0.3 bin 
neigh_modify delay 0 every 20 check no 

fix 1 all nve 

timestep 0.005 
thermo 100 

run 1000 
#=========================================================

Using: ForceLJNeighFull Neighbor2D CommMPI BinningKKSort
Atoms: 16384000 16384000

#Timestep Temperature PotE ETot Time Atomsteps/s
0 1.400000 -6.332812 -4.232812 0.000000 0.000000e+00
100 0.733035 -5.332379 -4.232827 17.779262 9.215230e+07
200 0.740314 -5.343293 -4.232822 35.700387 9.142283e+07
300 0.737660 -5.339313 -4.232822 53.609321 9.148507e+07
400 0.733390 -5.332908 -4.232823 71.526458 9.144318e+07
500 0.728307 -5.325283 -4.232824 89.437332 9.147515e+07
600 0.723120 -5.317504 -4.232824 107.385861 9.128325e+07
700 0.717525 -5.309111 -4.232824 125.346522 9.122159e+07
800 0.712705 -5.301881 -4.232824 143.303322 9.124120e+07
900 0.707500 -5.294073 -4.232823 161.285045 9.111474e+07
1000 0.702793 -5.287013 -4.232823 179.275872 9.106863e+07

#Procs Particles | Time T_Force T_Neigh T_Comm T_Other | Steps/s Atomsteps/s Atomsteps/(proc*s)
1 16384000 | 179.275879 141.983192 22.388556 8.391685 6.512181 | 5.577995 9.138987e+07 9.138987e+07 PERFORMANCE
188095
start time: 01:40:15
