macro  KOKKOS_ENABLE_CUDA      : defined
macro  CUDA_VERSION          = 10000 = version 10.0
Kokkos::Cuda[ 0 ] TITAN Xp capability 6.1, Total Global Memory: 11.91 G, Shared Memory per Block: 48 K : Selected

#InputFile:
#=========================================================
# 3d Lennard-Jones melt 

units lj 
atom_style atomic 

newton off 
lattice fcc 0.8442 
region box block 0 160 0 160 0 160 
create_box 1 box 
create_atoms 1 box 
mass 1 2.0 

velocity all create 1.4 87287 loop geom 

pair_style lj/cut 2.5 
pair_coeff 1 1 1.0 1.0 2.5 

neighbor 0.3 bin 
neigh_modify delay 0 every 20 check no 
fix 1 all nve 
thermo 10 

run 1000 
#=========================================================

Using: ForceLJNeighFull Neighbor2D CommMPI BinningKKSort
Atoms: 16384000 16384000

#Timestep Temperature PotE ETot Time Atomsteps/s
0 1.400000 -6.332812 -4.232812 0.000000 0.000000e+00
10 1.267050 -6.133727 -4.233153 20.591759 7.956582e+06
20 0.772060 -5.390506 -4.232416 46.354149 6.359658e+06
30 0.620836 -5.163999 -4.232746 67.691338 7.678612e+06
40 0.717897 -5.309801 -4.232956 94.002517 6.227011e+06
50 0.714219 -5.304150 -4.232821 115.245424 7.712692e+06
60 0.708659 -5.295813 -4.232825 141.527194 6.233979e+06
70 0.717513 -5.309106 -4.232837 162.866476 7.677859e+06
80 0.726147 -5.322056 -4.232835 189.241215 6.212005e+06
90 0.730606 -5.328739 -4.232830 210.615459 7.665300e+06
100 0.733035 -5.332379 -4.232827 237.031249 6.202351e+06
110 0.734786 -5.335005 -4.232826 258.410220 7.663605e+06
120 0.736257 -5.337210 -4.232825 284.837082 6.199752e+06
130 0.737380 -5.338894 -4.232824 306.203879 7.667972e+06
140 0.738246 -5.340193 -4.232824 332.626983 6.200634e+06
150 0.739020 -5.341354 -4.232824 353.986174 7.670703e+06
160 0.739647 -5.342294 -4.232823 380.374075 6.208906e+06
170 0.740063 -5.342918 -4.232823 401.725034 7.673660e+06
180 0.740259 -5.343212 -4.232823 428.114392 6.208563e+06
190 0.740322 -5.343306 -4.232823 449.457716 7.676405e+06
200 0.740314 -5.343293 -4.232822 475.824157 6.213960e+06
210 0.740437 -5.343478 -4.232822 497.164658 7.677420e+06
220 0.740398 -5.343419 -4.232822 523.552831 6.208842e+06
230 0.740185 -5.343100 -4.232822 544.890590 7.678407e+06
240 0.739764 -5.342468 -4.232822 571.276841 6.209295e+06
250 0.739499 -5.342071 -4.232822 592.612703 7.679090e+06
260 0.739279 -5.341741 -4.232822 618.998712 6.209351e+06
270 0.738904 -5.341179 -4.232822 640.335340 7.678814e+06
280 0.738491 -5.340559 -4.232822 666.717739 6.210201e+06
290 0.738081 -5.339944 -4.232822 688.054469 7.678777e+06
300 0.737660 -5.339313 -4.232822 714.442519 6.208871e+06
310 0.737379 -5.338891 -4.232823 735.781405 7.678001e+06
320 0.737097 -5.338468 -4.232823 762.183551 6.205556e+06
330 0.736651 -5.337799 -4.232822 783.523739 7.677533e+06
340 0.736237 -5.337179 -4.232823 809.912231 6.208767e+06
350 0.735631 -5.336269 -4.232823 831.254160 7.676907e+06
360 0.735088 -5.335454 -4.232822 857.663120 6.203955e+06
370 0.734847 -5.335093 -4.232823 879.010117 7.675084e+06
380 0.734393 -5.334412 -4.232823 905.426707 6.202163e+06
390 0.733903 -5.333677 -4.232823 926.773411 7.675189e+06
400 0.733390 -5.332908 -4.232823 953.189361 6.202313e+06
410 0.732848 -5.332095 -4.232823 974.542538 7.672863e+06
420 0.732288 -5.331254 -4.232823 1000.956099 6.202875e+06
430 0.731792 -5.330511 -4.232823 1022.312055 7.671864e+06
440 0.731328 -5.329815 -4.232823 1048.725749 6.202843e+06
450 0.730928 -5.329215 -4.232823 1070.084785 7.670758e+06
460 0.730331 -5.328319 -4.232823 1096.528282 6.195852e+06
470 0.729847 -5.327594 -4.232823 1117.889659 7.669917e+06
480 0.729330 -5.326818 -4.232823 1144.311075 6.201030e+06
490 0.728749 -5.325947 -4.232823 1165.675315 7.668890e+06
500 0.728307 -5.325283 -4.232824 1192.111394 6.197591e+06
510 0.727853 -5.324602 -4.232823 1213.477821 7.668105e+06
520 0.727315 -5.323795 -4.232823 1239.914388 6.197476e+06
530 0.726704 -5.322878 -4.232823 1261.282324 7.667563e+06
540 0.726218 -5.322150 -4.232823 1287.716402 6.198060e+06
550 0.725663 -5.321318 -4.232823 1309.087985 7.666255e+06
560 0.725051 -5.320399 -4.232823 1335.532566 6.195598e+06
570 0.724722 -5.319907 -4.232824 1356.906151 7.665537e+06
580 0.724129 -5.319017 -4.232823 1383.362374 6.192872e+06
590 0.723559 -5.318162 -4.232823 1404.736386 7.665384e+06
600 0.723120 -5.317504 -4.232824 1431.202289 6.190607e+06
610 0.722532 -5.316621 -4.232824 1452.579329 7.664298e+06
620 0.721955 -5.315755 -4.232823 1479.043875 6.190924e+06
630 0.721458 -5.315010 -4.232823 1500.421720 7.664010e+06
640 0.721046 -5.314392 -4.232823 1526.884446 6.191350e+06
650 0.720543 -5.313638 -4.232824 1548.267532 7.662131e+06
660 0.719853 -5.312603 -4.232823 1574.718448 6.194114e+06
670 0.719403 -5.311928 -4.232823 1596.100506 7.662499e+06
680 0.718974 -5.311285 -4.232824 1622.575705 6.188433e+06
690 0.718136 -5.310027 -4.232823 1643.958755 7.662143e+06
700 0.717525 -5.309111 -4.232824 1670.441265 6.186725e+06
710 0.717047 -5.308394 -4.232823 1691.825138 7.661848e+06
720 0.716568 -5.307675 -4.232823 1718.312814 6.185518e+06
730 0.716099 -5.306972 -4.232824 1739.700337 7.660542e+06
740 0.715492 -5.306061 -4.232823 1766.169485 6.189847e+06
750 0.714976 -5.305287 -4.232824 1787.561290 7.659008e+06
760 0.714443 -5.304488 -4.232824 1814.051658 6.184890e+06
770 0.713977 -5.303788 -4.232823 1835.445433 7.658302e+06
780 0.713638 -5.303281 -4.232824 1861.929902 6.186268e+06
790 0.713152 -5.302551 -4.232823 1883.325911 7.657502e+06
800 0.712705 -5.301881 -4.232824 1909.825301 6.182784e+06
810 0.712180 -5.301094 -4.232824 1931.224342 7.656418e+06
820 0.711557 -5.300160 -4.232824 1957.726268 6.182192e+06
830 0.710920 -5.299204 -4.232824 1979.129560 7.654897e+06
840 0.710322 -5.298307 -4.232823 2005.628203 6.182958e+06
850 0.709907 -5.297683 -4.232823 2027.032119 7.654674e+06
860 0.709583 -5.297198 -4.232824 2053.534104 6.182179e+06
870 0.709076 -5.296438 -4.232824 2074.942022 7.653243e+06
880 0.708523 -5.295608 -4.232823 2101.445033 6.181939e+06
890 0.707954 -5.294754 -4.232823 2122.856713 7.651898e+06
900 0.707500 -5.294073 -4.232823 2149.377699 6.177749e+06
910 0.707225 -5.293661 -4.232824 2170.789757 7.651763e+06
920 0.706554 -5.292654 -4.232823 2197.319062 6.175812e+06
930 0.706104 -5.291979 -4.232823 2218.733668 7.650853e+06
940 0.705622 -5.291255 -4.232823 2245.264031 6.175566e+06
950 0.705257 -5.290709 -4.232823 2266.681945 7.649671e+06
960 0.704860 -5.290114 -4.232823 2293.226105 6.172356e+06
970 0.704218 -5.289150 -4.232823 2314.640815 7.650816e+06
980 0.703663 -5.288318 -4.232823 2341.157220 6.178816e+06
990 0.703195 -5.287615 -4.232823 2362.577235 7.648921e+06
1000 0.702793 -5.287013 -4.232823 2389.101883 6.176896e+06

#Procs Particles | Time T_Force T_Neigh T_Comm T_Other | Steps/s Atomsteps/s Atomsteps/(proc*s)
1 16384000 | 2389.101890 1688.866265 243.220422 35.072049 421.942804 | 0.418567 6.857807e+06 6.857807e+06 PERFORMANCE
2416634
start time: 20:19:37
