macro  KOKKOS_ENABLE_CUDA      : defined
macro  CUDA_VERSION          = 10000 = version 10.0
Kokkos::Cuda[ 0 ] TITAN Xp capability 6.1, Total Global Memory: 11.91 G, Shared Memory per Block: 48 K : Selected

#InputFile:
#=========================================================
# 3d Lennard-Jones melt 

units lj 
atom_style atomic 

newton off 
lattice fcc 0.8442 
region box block 0 160 0 160 0 160 
create_box 1 box 
create_atoms 1 box 
mass 1 2.0 

velocity all create 1.4 87287 loop geom 

pair_style lj/cut 2.5 
pair_coeff 1 1 1.0 1.0 2.5 

neighbor 0.3 bin 
neigh_modify delay 0 every 20 check no 
fix 1 all nve 
thermo 10 

run 1000 
#=========================================================

Using: ForceLJNeighFull Neighbor2D CommMPI BinningKKSort
Atoms: 16384000 16384000

#Timestep Temperature PotE ETot Time Atomsteps/s
0 1.400000 -6.332812 -4.232812 0.000000 0.000000e+00
10 1.267050 -6.133727 -4.233153 2.532026 6.470707e+07
20 0.772060 -5.390506 -4.232416 5.841078 4.951268e+07
30 0.620836 -5.163999 -4.232746 8.512266 6.133600e+07
40 0.717897 -5.309801 -4.232956 11.895454 4.842769e+07
50 0.714219 -5.304150 -4.232821 14.555108 6.160200e+07
60 0.708659 -5.295813 -4.232825 17.934969 4.847536e+07
70 0.717513 -5.309106 -4.232837 20.606338 6.133186e+07
80 0.726147 -5.322056 -4.232835 23.998927 4.829350e+07
90 0.730606 -5.328739 -4.232830 26.674910 6.122611e+07
100 0.733035 -5.332379 -4.232827 30.064758 4.833254e+07
110 0.734786 -5.335005 -4.232826 32.740886 6.122280e+07
120 0.736257 -5.337210 -4.232825 36.139696 4.820510e+07
130 0.737380 -5.338894 -4.232824 38.814510 6.125285e+07
140 0.738246 -5.340193 -4.232824 42.205973 4.830953e+07
150 0.739020 -5.341354 -4.232824 44.879853 6.127426e+07
160 0.739647 -5.342294 -4.232823 48.276366 4.823771e+07
170 0.740063 -5.342918 -4.232823 50.949092 6.130070e+07
180 0.740259 -5.343212 -4.232823 54.343249 4.827119e+07
190 0.740322 -5.343306 -4.232823 57.015277 6.131673e+07
200 0.740314 -5.343293 -4.232822 60.409107 4.827583e+07
210 0.740437 -5.343478 -4.232822 63.080519 6.133086e+07
220 0.740398 -5.343419 -4.232822 66.472861 4.829703e+07
230 0.740185 -5.343100 -4.232822 69.144068 6.133556e+07
240 0.739764 -5.342468 -4.232822 72.544694 4.817937e+07
250 0.739499 -5.342071 -4.232822 75.215844 6.133687e+07
260 0.739279 -5.341741 -4.232822 78.605787 4.833120e+07
270 0.738904 -5.341179 -4.232822 81.277057 6.133412e+07
280 0.738491 -5.340559 -4.232822 84.667786 4.831999e+07
290 0.738081 -5.339944 -4.232822 87.339157 6.133179e+07
300 0.737660 -5.339313 -4.232822 90.726929 4.836217e+07
310 0.737379 -5.338891 -4.232823 93.398699 6.132264e+07
320 0.737097 -5.338468 -4.232823 96.794775 4.824391e+07
330 0.736651 -5.337799 -4.232822 99.466731 6.131838e+07
340 0.736237 -5.337179 -4.232823 102.863563 4.823318e+07
350 0.735631 -5.336269 -4.232823 105.535623 6.131600e+07
360 0.735088 -5.335454 -4.232822 108.921880 4.838381e+07
370 0.734847 -5.335093 -4.232823 111.594236 6.130918e+07
380 0.734393 -5.334412 -4.232823 114.980680 4.838114e+07
390 0.733903 -5.333677 -4.232823 117.653228 6.130480e+07
400 0.733390 -5.332908 -4.232823 121.044596 4.831089e+07
410 0.732848 -5.332095 -4.232823 123.717380 6.129936e+07
420 0.732288 -5.331254 -4.232823 127.104822 4.836688e+07
430 0.731792 -5.330511 -4.232823 129.777902 6.129260e+07
440 0.731328 -5.329815 -4.232823 133.173323 4.825323e+07
450 0.730928 -5.329215 -4.232823 135.846733 6.128503e+07
460 0.730331 -5.328319 -4.232823 139.245265 4.820904e+07
470 0.729847 -5.327594 -4.232823 141.919076 6.127583e+07
480 0.729330 -5.326818 -4.232823 145.317678 4.820805e+07
490 0.728749 -5.325947 -4.232823 147.991446 6.127683e+07
500 0.728307 -5.325283 -4.232824 151.382239 4.831908e+07
510 0.727853 -5.324602 -4.232823 154.056671 6.126160e+07
520 0.727315 -5.323795 -4.232823 157.459337 4.815048e+07
530 0.726704 -5.322878 -4.232823 160.134012 6.125604e+07
540 0.726218 -5.322150 -4.232823 163.532456 4.821030e+07
550 0.725663 -5.321318 -4.232823 166.207800 6.124071e+07
560 0.725051 -5.320399 -4.232823 169.599689 4.830347e+07
570 0.724722 -5.319907 -4.232824 172.275180 6.123737e+07
580 0.724129 -5.319017 -4.232823 175.674538 4.819733e+07
590 0.723559 -5.318162 -4.232823 178.350032 6.123729e+07
600 0.723120 -5.317504 -4.232824 181.751200 4.817169e+07
610 0.722532 -5.316621 -4.232824 184.427259 6.122436e+07
620 0.721955 -5.315755 -4.232823 187.822592 4.825447e+07
630 0.721458 -5.315010 -4.232823 190.498804 6.122087e+07
640 0.721046 -5.314392 -4.232823 193.895990 4.822815e+07
650 0.720543 -5.313638 -4.232824 196.572448 6.121524e+07
660 0.719853 -5.312603 -4.232823 199.964442 4.830197e+07
670 0.719403 -5.311928 -4.232823 202.641459 6.120246e+07
680 0.718974 -5.311285 -4.232824 206.041009 4.819462e+07
690 0.718136 -5.310027 -4.232823 208.718201 6.119844e+07
700 0.717525 -5.309111 -4.232824 212.112261 4.827257e+07
710 0.717047 -5.308394 -4.232823 214.789673 6.119343e+07
720 0.716568 -5.307675 -4.232823 218.196508 4.809155e+07
730 0.716099 -5.306972 -4.232824 220.873973 6.119221e+07
740 0.715492 -5.306061 -4.232823 224.268577 4.826483e+07
750 0.714976 -5.305287 -4.232824 226.946420 6.118358e+07
760 0.714443 -5.304488 -4.232824 230.351012 4.812324e+07
770 0.713977 -5.303788 -4.232823 233.029238 6.117482e+07
780 0.713638 -5.303281 -4.232824 236.426941 4.822081e+07
790 0.713152 -5.302551 -4.232823 239.105357 6.117049e+07
800 0.712705 -5.301881 -4.232824 242.513018 4.807990e+07
810 0.712180 -5.301094 -4.232824 245.191683 6.116481e+07
820 0.711557 -5.300160 -4.232824 248.593395 4.816398e+07
830 0.710920 -5.299204 -4.232824 251.272159 6.116253e+07
840 0.710322 -5.298307 -4.232823 254.676921 4.812084e+07
850 0.709907 -5.297683 -4.232823 257.356208 6.115060e+07
860 0.709583 -5.297198 -4.232824 260.766260 4.804619e+07
870 0.709076 -5.296438 -4.232824 263.445740 6.114618e+07
880 0.708523 -5.295608 -4.232823 266.845903 4.818593e+07
890 0.707954 -5.294754 -4.232823 269.525442 6.114484e+07
900 0.707500 -5.294073 -4.232823 272.925759 4.818374e+07
910 0.707225 -5.293661 -4.232824 275.605352 6.114362e+07
920 0.706554 -5.292654 -4.232823 279.020537 4.797398e+07
930 0.706104 -5.291979 -4.232823 281.700523 6.113464e+07
940 0.705622 -5.291255 -4.232823 285.102092 4.816601e+07
950 0.705257 -5.290709 -4.232823 287.782418 6.112689e+07
960 0.704860 -5.290114 -4.232823 291.191801 4.805562e+07
970 0.704218 -5.289150 -4.232823 293.872693 6.111398e+07
980 0.703663 -5.288318 -4.232823 297.280276 4.808100e+07
990 0.703195 -5.287615 -4.232823 299.961237 6.111241e+07
1000 0.702793 -5.287013 -4.232823 303.371493 4.804332e+07

#Procs Particles | Time T_Force T_Neigh T_Comm T_Other | Steps/s Atomsteps/s Atomsteps/(proc*s)
1 16384000 | 303.371500 206.764943 31.798377 10.059480 54.748442 | 3.296289 5.400639e+07 5.400639e+07 PERFORMANCE
313159
start time: 04:53:43
