macro  KOKKOS_ENABLE_CUDA      : defined
macro  CUDA_VERSION          = 10000 = version 10.0
Kokkos::Cuda[ 0 ] TITAN Xp capability 6.1, Total Global Memory: 11.91 G, Shared Memory per Block: 48 K : Selected

#InputFile:
#=========================================================
# 3d Lennard-Jones melt 

units lj 
atom_style atomic 

newton off 
lattice fcc 0.8442 
region box block 0 160 0 160 0 160 
create_box 1 box 
create_atoms 1 box 
mass 1 2.0 

velocity all create 1.4 87287 loop geom 

pair_style lj/cut 2.5 
pair_coeff 1 1 1.0 1.0 2.5 

neighbor 0.3 bin 
neigh_modify delay 0 every 20 check no 
fix 1 all nve 
thermo 10 

run 1000 
#=========================================================

Using: ForceLJNeighFull Neighbor2D CommMPI BinningKKSort
Atoms: 16384000 16384000

#Timestep Temperature PotE ETot Time Atomsteps/s
0 1.400000 -6.332812 -4.232812 0.000000 0.000000e+00
10 1.267050 -6.133727 -4.233153 2.274091 7.204637e+07
20 0.772060 -5.390506 -4.232416 5.256671 5.493231e+07
30 0.620836 -5.163999 -4.232746 7.655835 6.829044e+07
40 0.717897 -5.309801 -4.232956 10.695024 5.390912e+07
50 0.714219 -5.304150 -4.232821 13.083741 6.858912e+07
60 0.708659 -5.295813 -4.232825 16.113495 5.407701e+07
70 0.717513 -5.309106 -4.232837 18.512588 6.829246e+07
80 0.726147 -5.322056 -4.232835 21.560896 5.374786e+07
90 0.730606 -5.328739 -4.232830 23.964311 6.816966e+07
100 0.733035 -5.332379 -4.232827 27.023310 5.356000e+07
110 0.734786 -5.335005 -4.232826 29.426944 6.816345e+07
120 0.736257 -5.337210 -4.232825 32.476274 5.372984e+07
130 0.737380 -5.338894 -4.232824 34.878536 6.820240e+07
140 0.738246 -5.340193 -4.232824 37.923125 5.381349e+07
150 0.739020 -5.341354 -4.232824 40.324481 6.822813e+07
160 0.739647 -5.342294 -4.232823 43.378829 5.364156e+07
170 0.740063 -5.342918 -4.232823 45.779068 6.825988e+07
180 0.740259 -5.343212 -4.232823 48.834420 5.362395e+07
190 0.740322 -5.343306 -4.232823 51.234164 6.827392e+07
200 0.740314 -5.343293 -4.232822 54.286254 5.368124e+07
210 0.740437 -5.343478 -4.232822 56.685445 6.828967e+07
220 0.740398 -5.343419 -4.232822 59.734800 5.372941e+07
230 0.740185 -5.343100 -4.232822 62.134041 6.828827e+07
240 0.739764 -5.342468 -4.232822 65.183781 5.372261e+07
250 0.739499 -5.342071 -4.232822 67.582991 6.828914e+07
260 0.739279 -5.341741 -4.232822 70.640118 5.359280e+07
270 0.738904 -5.341179 -4.232822 73.039103 6.829555e+07
280 0.738491 -5.340559 -4.232822 76.091748 5.367149e+07
290 0.738081 -5.339944 -4.232822 78.490959 6.828912e+07
300 0.737660 -5.339313 -4.232822 81.540132 5.373261e+07
310 0.737379 -5.338891 -4.232823 83.939587 6.828217e+07
320 0.737097 -5.338468 -4.232823 86.982327 5.384621e+07
330 0.736651 -5.337799 -4.232822 89.381980 6.827652e+07
340 0.736237 -5.337179 -4.232823 92.437013 5.362954e+07
350 0.735631 -5.336269 -4.232823 94.836773 6.827351e+07
360 0.735088 -5.335454 -4.232822 97.894905 5.357519e+07
370 0.734847 -5.335093 -4.232823 100.295049 6.826262e+07
380 0.734393 -5.334412 -4.232823 103.348194 5.366267e+07
390 0.733903 -5.333677 -4.232823 105.748609 6.825484e+07
400 0.733390 -5.332908 -4.232823 108.802118 5.365630e+07
410 0.732848 -5.332095 -4.232823 111.202594 6.825314e+07
420 0.732288 -5.331254 -4.232823 114.255419 5.366833e+07
430 0.731792 -5.330511 -4.232823 116.656094 6.824748e+07
440 0.731328 -5.329815 -4.232823 119.708843 5.366966e+07
450 0.730928 -5.329215 -4.232823 122.109929 6.823577e+07
460 0.730331 -5.328319 -4.232823 125.171237 5.351961e+07
470 0.729847 -5.327594 -4.232823 127.572589 6.822824e+07
480 0.729330 -5.326818 -4.232823 130.621442 5.373825e+07
490 0.728749 -5.325947 -4.232823 133.022912 6.822488e+07
500 0.728307 -5.325283 -4.232824 136.071196 5.374826e+07
510 0.727853 -5.324602 -4.232823 138.473097 6.821265e+07
520 0.727315 -5.323795 -4.232823 141.533777 5.353058e+07
530 0.726704 -5.322878 -4.232823 143.935915 6.820592e+07
540 0.726218 -5.322150 -4.232823 146.991637 5.361745e+07
550 0.725663 -5.321318 -4.232823 149.394341 6.818983e+07
560 0.725051 -5.320399 -4.232823 152.457216 5.349223e+07
570 0.724722 -5.319907 -4.232824 154.860161 6.818300e+07
580 0.724129 -5.319017 -4.232823 157.911924 5.368700e+07
590 0.723559 -5.318162 -4.232823 160.314873 6.818290e+07
600 0.723120 -5.317504 -4.232824 163.369668 5.363370e+07
610 0.722532 -5.316621 -4.232824 165.773319 6.816297e+07
620 0.721955 -5.315755 -4.232823 168.829959 5.360135e+07
630 0.721458 -5.315010 -4.232823 171.233502 6.816603e+07
640 0.721046 -5.314392 -4.232823 174.295158 5.351353e+07
650 0.720543 -5.313638 -4.232824 176.698851 6.816179e+07
660 0.719853 -5.312603 -4.232823 179.749985 5.369806e+07
670 0.719403 -5.311928 -4.232823 182.154081 6.815037e+07
680 0.718974 -5.311285 -4.232824 185.206199 5.368075e+07
690 0.718136 -5.310027 -4.232823 187.610544 6.814331e+07
700 0.717525 -5.309111 -4.232824 190.677688 5.341776e+07
710 0.717047 -5.308394 -4.232823 193.082359 6.813407e+07
720 0.716568 -5.307675 -4.232823 196.140195 5.358039e+07
730 0.716099 -5.306972 -4.232824 198.545173 6.812534e+07
740 0.715492 -5.306061 -4.232823 201.603332 5.357472e+07
750 0.714976 -5.305287 -4.232824 204.008200 6.812846e+07
760 0.714443 -5.304488 -4.232824 207.066538 5.357159e+07
770 0.713977 -5.303788 -4.232823 209.471609 6.812271e+07
780 0.713638 -5.303281 -4.232824 212.533604 5.350760e+07
790 0.713152 -5.302551 -4.232823 214.939158 6.810907e+07
800 0.712705 -5.301881 -4.232824 217.996904 5.358195e+07
810 0.712180 -5.301094 -4.232824 220.402860 6.809766e+07
820 0.711557 -5.300160 -4.232824 223.475942 5.331456e+07
830 0.710920 -5.299204 -4.232824 225.882017 6.809431e+07
840 0.710322 -5.298307 -4.232823 228.937445 5.362260e+07
850 0.709907 -5.297683 -4.232823 231.343750 6.808780e+07
860 0.709583 -5.297198 -4.232824 234.398579 5.363310e+07
870 0.709076 -5.296438 -4.232824 236.804924 6.808668e+07
880 0.708523 -5.295608 -4.232823 239.869973 5.345427e+07
890 0.707954 -5.294754 -4.232823 242.276532 6.808063e+07
900 0.707500 -5.294073 -4.232823 245.338315 5.351130e+07
910 0.707225 -5.293661 -4.232824 247.745237 6.807035e+07
920 0.706554 -5.292654 -4.232823 250.811470 5.343363e+07
930 0.706104 -5.291979 -4.232823 253.218741 6.806047e+07
940 0.705622 -5.291255 -4.232823 256.286844 5.340107e+07
950 0.705257 -5.290709 -4.232823 258.694268 6.805615e+07
960 0.704860 -5.290114 -4.232823 261.760399 5.343541e+07
970 0.704218 -5.289150 -4.232823 264.167873 6.805475e+07
980 0.703663 -5.288318 -4.232823 267.238742 5.335298e+07
990 0.703195 -5.287615 -4.232823 269.646485 6.804712e+07
1000 0.702793 -5.287013 -4.232823 272.719788 5.331072e+07

#Procs Particles | Time T_Force T_Neigh T_Comm T_Other | Steps/s Atomsteps/s Atomsteps/(proc*s)
1 16384000 | 272.719795 185.561522 28.710375 9.236125 49.211507 | 3.666767 6.007631e+07 6.007631e+07 PERFORMANCE
282097
start time: 13:25:48
