macro  KOKKOS_ENABLE_CUDA      : defined
macro  CUDA_VERSION          = 10000 = version 10.0
Kokkos::Cuda[ 0 ] TITAN Xp capability 6.1, Total Global Memory: 11.91 G, Shared Memory per Block: 48 K : Selected

#InputFile:
#=========================================================
# 3d Lennard-Jones melt 

units lj 
atom_style atomic 

newton off 
lattice fcc 0.8442 
region box block 0 160 0 160 0 160 
create_box 1 box 
create_atoms 1 box 
mass 1 2.0 

velocity all create 1.4 87287 loop geom 

pair_style lj/cut 2.5 
pair_coeff 1 1 1.0 1.0 2.5 

neighbor 0.3 bin 
neigh_modify delay 0 every 20 check no 
fix 1 all nve 
thermo 10 

run 1000 
#=========================================================

Using: ForceLJNeighFull Neighbor2D CommMPI BinningKKSort
Atoms: 16384000 16384000

#Timestep Temperature PotE ETot Time Atomsteps/s
0 1.400000 -6.332812 -4.232812 0.000000 0.000000e+00
10 1.267050 -6.133727 -4.233153 10.396904 1.575854e+07
20 0.772060 -5.390506 -4.232416 23.468956 1.253361e+07
30 0.620836 -5.163999 -4.232746 34.245007 1.520409e+07
40 0.717897 -5.309801 -4.232956 47.600993 1.226716e+07
50 0.714219 -5.304150 -4.232821 58.331425 1.526872e+07
60 0.708659 -5.295813 -4.232825 71.672024 1.228131e+07
70 0.717513 -5.309106 -4.232837 82.450964 1.520001e+07
80 0.726147 -5.322056 -4.232835 95.828407 1.224748e+07
90 0.730606 -5.328739 -4.232830 106.626599 1.517291e+07
100 0.733035 -5.332379 -4.232827 120.022559 1.223055e+07
110 0.734786 -5.335005 -4.232826 130.822737 1.517012e+07
120 0.736257 -5.337210 -4.232825 144.216558 1.223251e+07
130 0.737380 -5.338894 -4.232824 155.011204 1.517789e+07
140 0.738246 -5.340193 -4.232824 168.403601 1.223381e+07
150 0.739020 -5.341354 -4.232824 179.193927 1.518397e+07
160 0.739647 -5.342294 -4.232823 192.588430 1.223188e+07
170 0.740063 -5.342918 -4.232823 203.375015 1.518924e+07
180 0.740259 -5.343212 -4.232823 216.759712 1.224084e+07
190 0.740322 -5.343306 -4.232823 227.542442 1.519467e+07
200 0.740314 -5.343293 -4.232822 240.925396 1.224244e+07
210 0.740437 -5.343478 -4.232822 251.706836 1.519649e+07
220 0.740398 -5.343419 -4.232822 265.089765 1.224246e+07
230 0.740185 -5.343100 -4.232822 275.870313 1.519774e+07
240 0.739764 -5.342468 -4.232822 289.248725 1.224659e+07
250 0.739499 -5.342071 -4.232822 300.028244 1.519919e+07
260 0.739279 -5.341741 -4.232822 313.417564 1.223662e+07
270 0.738904 -5.341179 -4.232822 324.197505 1.519860e+07
280 0.738491 -5.340559 -4.232822 337.592188 1.223172e+07
290 0.738081 -5.339944 -4.232822 348.373563 1.519658e+07
300 0.737660 -5.339313 -4.232822 361.759404 1.223980e+07
310 0.737379 -5.338891 -4.232823 372.541957 1.519492e+07
320 0.737097 -5.338468 -4.232823 385.930553 1.223728e+07
330 0.736651 -5.337799 -4.232822 396.713189 1.519480e+07
340 0.736237 -5.337179 -4.232823 410.105387 1.223399e+07
350 0.735631 -5.336269 -4.232823 420.888728 1.519381e+07
360 0.735088 -5.335454 -4.232822 434.292703 1.222324e+07
370 0.734847 -5.335093 -4.232823 445.079137 1.518945e+07
380 0.734393 -5.334412 -4.232823 458.479622 1.222642e+07
390 0.733903 -5.333677 -4.232823 469.266036 1.518948e+07
400 0.733390 -5.332908 -4.232823 482.660946 1.223151e+07
410 0.732848 -5.332095 -4.232823 493.448159 1.518835e+07
420 0.732288 -5.331254 -4.232823 506.844472 1.223023e+07
430 0.731792 -5.330511 -4.232823 517.632845 1.518672e+07
440 0.731328 -5.329815 -4.232823 531.028247 1.223106e+07
450 0.730928 -5.329215 -4.232823 541.818313 1.518434e+07
460 0.730331 -5.328319 -4.232823 555.227365 1.221861e+07
470 0.729847 -5.327594 -4.232823 566.017771 1.518386e+07
480 0.729330 -5.326818 -4.232823 579.416220 1.222828e+07
490 0.728749 -5.325947 -4.232823 590.206641 1.518384e+07
500 0.728307 -5.325283 -4.232824 603.613475 1.222063e+07
510 0.727853 -5.324602 -4.232823 614.405815 1.518114e+07
520 0.727315 -5.323795 -4.232823 627.818289 1.221549e+07
530 0.726704 -5.322878 -4.232823 638.612169 1.517897e+07
540 0.726218 -5.322150 -4.232823 652.017519 1.222199e+07
550 0.725663 -5.321318 -4.232823 662.813117 1.517656e+07
560 0.725051 -5.320399 -4.232823 676.225524 1.221555e+07
570 0.724722 -5.319907 -4.232824 687.022170 1.517508e+07
580 0.724129 -5.319017 -4.232823 700.451388 1.220026e+07
590 0.723559 -5.318162 -4.232823 711.247667 1.517560e+07
600 0.723120 -5.317504 -4.232824 724.676900 1.220025e+07
610 0.722532 -5.316621 -4.232824 735.475571 1.517224e+07
620 0.721955 -5.315755 -4.232823 748.896831 1.220750e+07
630 0.721458 -5.315010 -4.232823 759.697136 1.516994e+07
640 0.721046 -5.314392 -4.232823 773.120728 1.220538e+07
650 0.720543 -5.313638 -4.232824 783.921257 1.516963e+07
660 0.719853 -5.312603 -4.232823 797.348859 1.220173e+07
670 0.719403 -5.311928 -4.232823 808.150691 1.516780e+07
680 0.718974 -5.311285 -4.232824 821.573909 1.220572e+07
690 0.718136 -5.310027 -4.232823 832.377098 1.516589e+07
700 0.717525 -5.309111 -4.232824 845.805297 1.220119e+07
710 0.717047 -5.308394 -4.232823 856.610470 1.516311e+07
720 0.716568 -5.307675 -4.232823 870.045133 1.219532e+07
730 0.716099 -5.306972 -4.232824 880.850424 1.516294e+07
740 0.715492 -5.306061 -4.232823 894.281175 1.219887e+07
750 0.714976 -5.305287 -4.232824 905.087620 1.516132e+07
760 0.714443 -5.304488 -4.232824 918.535210 1.218360e+07
770 0.713977 -5.303788 -4.232823 929.342908 1.515956e+07
780 0.713638 -5.303281 -4.232824 942.788505 1.218540e+07
790 0.713152 -5.302551 -4.232823 953.597115 1.515829e+07
800 0.712705 -5.301881 -4.232824 967.032077 1.219505e+07
810 0.712180 -5.301094 -4.232824 977.841755 1.515679e+07
820 0.711557 -5.300160 -4.232824 991.281783 1.219045e+07
830 0.710920 -5.299204 -4.232824 1002.093281 1.515424e+07
840 0.710322 -5.298307 -4.232823 1015.538178 1.218604e+07
850 0.709907 -5.297683 -4.232823 1026.351245 1.515204e+07
860 0.709583 -5.297198 -4.232824 1039.805381 1.217767e+07
870 0.709076 -5.296438 -4.232824 1050.618310 1.515223e+07
880 0.708523 -5.295608 -4.232823 1064.071849 1.217821e+07
890 0.707954 -5.294754 -4.232823 1074.885986 1.515054e+07
900 0.707500 -5.294073 -4.232823 1088.332152 1.218489e+07
910 0.707225 -5.293661 -4.232824 1099.146687 1.514998e+07
920 0.706554 -5.292654 -4.232823 1112.601579 1.217698e+07
930 0.706104 -5.291979 -4.232823 1123.418287 1.514694e+07
940 0.705622 -5.291255 -4.232823 1136.882891 1.216820e+07
950 0.705257 -5.290709 -4.232823 1147.701599 1.514414e+07
960 0.704860 -5.290114 -4.232823 1161.149684 1.218315e+07
970 0.704218 -5.289150 -4.232823 1171.969194 1.514301e+07
980 0.703663 -5.288318 -4.232823 1185.435948 1.216626e+07
990 0.703195 -5.287615 -4.232823 1196.256253 1.514190e+07
1000 0.702793 -5.287013 -4.232823 1209.712921 1.217538e+07

#Procs Particles | Time T_Force T_Neigh T_Comm T_Other | Steps/s Atomsteps/s Atomsteps/(proc*s)
1 16384000 | 1209.712928 852.424476 123.841805 18.589593 214.856796 | 0.826642 1.354371e+07 1.354371e+07 PERFORMANCE
1227329
start time: 07:51:15
