macro  KOKKOS_ENABLE_CUDA      : defined
macro  CUDA_VERSION          = 10000 = version 10.0
Kokkos::Cuda[ 0 ] TITAN Xp capability 6.1, Total Global Memory: 11.91 G, Shared Memory per Block: 48 K : Selected

#InputFile:
#=========================================================
# 3d Lennard-Jones melt 

units lj 
atom_style atomic 

newton off 
lattice fcc 0.8442 
region box block 0 160 0 160 0 160 
create_box 1 box 
create_atoms 1 box 
mass 1 2.0 

velocity all create 1.4 87287 loop geom 

pair_style lj/cut 2.5 
pair_coeff 1 1 1.0 1.0 2.5 

neighbor 0.3 bin 
neigh_modify delay 0 every 20 check no 

fix 1 all nve 

timestep 0.005 
thermo 100 

run 1000 
#=========================================================

Using: ForceLJNeighFull Neighbor2D CommMPI BinningKKSort
Atoms: 16384000 16384000

#Timestep Temperature PotE ETot Time Atomsteps/s
0 1.400000 -6.332812 -4.232812 0.000000 0.000000e+00
100 0.733035 -5.332379 -4.232827 16.409351 9.984551e+07
200 0.740314 -5.343293 -4.232822 32.934191 9.914771e+07
300 0.737660 -5.339313 -4.232822 49.466179 9.910483e+07
400 0.733390 -5.332908 -4.232823 66.012836 9.901698e+07
500 0.728307 -5.325283 -4.232824 82.616724 9.867568e+07
600 0.723120 -5.317504 -4.232824 99.238255 9.857094e+07
700 0.717525 -5.309111 -4.232824 115.869346 9.851429e+07
800 0.712705 -5.301881 -4.232824 132.509578 9.846016e+07
900 0.707500 -5.294073 -4.232823 149.158135 9.841093e+07
1000 0.702793 -5.287013 -4.232823 165.823865 9.830952e+07

#Procs Particles | Time T_Force T_Neigh T_Comm T_Other | Steps/s Atomsteps/s Atomsteps/(proc*s)
1 16384000 | 165.823873 130.040174 20.816881 8.387846 6.578737 | 6.030495 9.880363e+07 9.880363e+07 PERFORMANCE
174531
start time: 01:27:57
