macro  KOKKOS_ENABLE_CUDA      : defined
macro  CUDA_VERSION          = 10000 = version 10.0
Kokkos::Cuda[ 0 ] TITAN Xp capability 6.1, Total Global Memory: 11.91 G, Shared Memory per Block: 48 K : Selected

#InputFile:
#=========================================================
# 3d Lennard-Jones melt 

units lj 
atom_style atomic 

newton off 
lattice fcc 0.8442 
region box block 0 160 0 160 0 160 
create_box 1 box 
create_atoms 1 box 
mass 1 2.0 

velocity all create 1.4 87287 loop geom 

pair_style lj/cut 2.5 
pair_coeff 1 1 1.0 1.0 2.5 

neighbor 0.3 bin 
neigh_modify delay 0 every 20 check no 
fix 1 all nve 
thermo 10 

run 1000 
#=========================================================

Using: ForceLJNeighFull Neighbor2D CommMPI BinningKKSort
Atoms: 16384000 16384000

#Timestep Temperature PotE ETot Time Atomsteps/s
0 1.400000 -6.332812 -4.232812 0.000000 0.000000e+00
10 1.267050 -6.133727 -4.233153 1.543232 1.061668e+08
20 0.772060 -5.390506 -4.232416 3.619876 7.889653e+07
30 0.620836 -5.163999 -4.232746 5.296923 9.769554e+07
40 0.717897 -5.309801 -4.232956 7.442875 7.634839e+07
50 0.714219 -5.304150 -4.232821 9.130214 9.709964e+07
60 0.708659 -5.295813 -4.232825 11.291435 7.580901e+07
70 0.717513 -5.309106 -4.232837 12.994817 9.618509e+07
80 0.726147 -5.322056 -4.232835 15.164466 7.551451e+07
90 0.730606 -5.328739 -4.232830 16.874763 9.579625e+07
100 0.733035 -5.332379 -4.232827 19.059956 7.497737e+07
110 0.734786 -5.335005 -4.232826 20.775115 9.552469e+07
120 0.736257 -5.337210 -4.232825 22.959173 7.501632e+07
130 0.737380 -5.338894 -4.232824 24.673580 9.556653e+07
140 0.738246 -5.340193 -4.232824 26.857248 7.502972e+07
150 0.739020 -5.341354 -4.232824 28.574074 9.543196e+07
160 0.739647 -5.342294 -4.232823 30.764509 7.479793e+07
170 0.740063 -5.342918 -4.232823 32.484273 9.526886e+07
180 0.740259 -5.343212 -4.232823 34.672936 7.485850e+07
190 0.740322 -5.343306 -4.232823 36.393522 9.522334e+07
200 0.740314 -5.343293 -4.232822 38.580926 7.490159e+07
210 0.740437 -5.343478 -4.232822 40.302853 9.514919e+07
220 0.740398 -5.343419 -4.232822 42.499292 7.459347e+07
230 0.740185 -5.343100 -4.232822 44.219892 9.522261e+07
240 0.739764 -5.342468 -4.232822 46.410521 7.479130e+07
250 0.739499 -5.342071 -4.232822 48.134587 9.503116e+07
260 0.739279 -5.341741 -4.232822 50.336686 7.440176e+07
270 0.738904 -5.341179 -4.232822 52.065896 9.474843e+07
280 0.738491 -5.340559 -4.232822 54.277151 7.409367e+07
290 0.738081 -5.339944 -4.232822 56.006559 9.473763e+07
300 0.737660 -5.339313 -4.232822 58.210225 7.434884e+07
310 0.737379 -5.338891 -4.232823 59.940358 9.469793e+07
320 0.737097 -5.338468 -4.232823 62.150535 7.412979e+07
330 0.736651 -5.337799 -4.232822 63.884104 9.451023e+07
340 0.736237 -5.337179 -4.232823 66.092301 7.419629e+07
350 0.735631 -5.336269 -4.232823 67.824336 9.459393e+07
360 0.735088 -5.335454 -4.232822 70.038697 7.398974e+07
370 0.734847 -5.335093 -4.232823 71.773376 9.444975e+07
380 0.734393 -5.334412 -4.232823 73.982213 7.417478e+07
390 0.733903 -5.333677 -4.232823 75.717864 9.439689e+07
400 0.733390 -5.332908 -4.232823 77.926281 7.418889e+07
410 0.732848 -5.332095 -4.232823 79.661890 9.439910e+07
420 0.732288 -5.331254 -4.232823 81.880258 7.385611e+07
430 0.731792 -5.330511 -4.232823 83.615257 9.443235e+07
440 0.731328 -5.329815 -4.232823 85.823179 7.420552e+07
450 0.730928 -5.329215 -4.232823 87.561358 9.425953e+07
460 0.730331 -5.328319 -4.232823 89.774054 7.404542e+07
470 0.729847 -5.327594 -4.232823 91.513483 9.419182e+07
480 0.729330 -5.326818 -4.232823 93.722328 7.417453e+07
490 0.728749 -5.325947 -4.232823 95.457485 9.442375e+07
500 0.728307 -5.325283 -4.232824 97.672311 7.397419e+07
510 0.727853 -5.324602 -4.232823 99.410449 9.426181e+07
520 0.727315 -5.323795 -4.232823 101.629200 7.384335e+07
530 0.726704 -5.322878 -4.232823 103.373709 9.391752e+07
540 0.726218 -5.322150 -4.232823 105.596809 7.369890e+07
550 0.725663 -5.321318 -4.232823 107.342438 9.385727e+07
560 0.725051 -5.320399 -4.232823 109.564062 7.374785e+07
570 0.724722 -5.319907 -4.232824 111.310960 9.378913e+07
580 0.724129 -5.319017 -4.232823 113.538640 7.354734e+07
590 0.723559 -5.318162 -4.232823 115.282523 9.395126e+07
600 0.723120 -5.317504 -4.232824 117.509902 7.355732e+07
610 0.722532 -5.316621 -4.232824 119.257268 9.376397e+07
620 0.721955 -5.315755 -4.232823 121.483959 7.358005e+07
630 0.721458 -5.315010 -4.232823 123.231212 9.377003e+07
640 0.721046 -5.314392 -4.232823 125.458508 7.356006e+07
650 0.720543 -5.313638 -4.232824 127.204668 9.382870e+07
660 0.719853 -5.312603 -4.232823 129.431216 7.358476e+07
670 0.719403 -5.311928 -4.232823 131.179319 9.372445e+07
680 0.718974 -5.311285 -4.232824 133.399860 7.378384e+07
690 0.718136 -5.310027 -4.232823 135.147606 9.374358e+07
700 0.717525 -5.309111 -4.232824 137.377608 7.347078e+07
710 0.717047 -5.308394 -4.232823 139.126169 9.369991e+07
720 0.716568 -5.307675 -4.232823 141.350543 7.365668e+07
730 0.716099 -5.306972 -4.232824 143.099047 9.370296e+07
740 0.715492 -5.306061 -4.232823 145.328109 7.350177e+07
750 0.714976 -5.305287 -4.232824 147.078073 9.362479e+07
760 0.714443 -5.304488 -4.232824 149.306293 7.352955e+07
770 0.713977 -5.303788 -4.232823 151.055712 9.365393e+07
780 0.713638 -5.303281 -4.232824 153.280154 7.365443e+07
790 0.713152 -5.302551 -4.232823 155.029223 9.367269e+07
800 0.712705 -5.301881 -4.232824 157.254244 7.363528e+07
810 0.712180 -5.301094 -4.232824 159.003187 9.367944e+07
820 0.711557 -5.300160 -4.232824 161.231757 7.351799e+07
830 0.710920 -5.299204 -4.232824 162.981779 9.362166e+07
840 0.710322 -5.298307 -4.232823 165.213435 7.341633e+07
850 0.709907 -5.297683 -4.232823 166.963275 9.363142e+07
860 0.709583 -5.297198 -4.232824 169.203336 7.314086e+07
870 0.709076 -5.296438 -4.232824 170.954255 9.357371e+07
880 0.708523 -5.295608 -4.232823 173.185497 7.342996e+07
890 0.707954 -5.294754 -4.232823 174.938354 9.347029e+07
900 0.707500 -5.294073 -4.232823 177.168662 7.346070e+07
910 0.707225 -5.293661 -4.232824 178.920436 9.352805e+07
920 0.706554 -5.292654 -4.232823 181.155840 7.329322e+07
930 0.706104 -5.291979 -4.232823 182.909896 9.340636e+07
940 0.705622 -5.291255 -4.232823 185.146058 7.326842e+07
950 0.705257 -5.290709 -4.232823 186.900865 9.336637e+07
960 0.704860 -5.290114 -4.232823 189.131869 7.343781e+07
970 0.704218 -5.289150 -4.232823 190.884997 9.345580e+07
980 0.703663 -5.288318 -4.232823 193.118026 7.337117e+07
990 0.703195 -5.287615 -4.232823 194.871709 9.342625e+07
1000 0.702793 -5.287013 -4.232823 197.104706 7.337224e+07

#Procs Particles | Time T_Force T_Neigh T_Comm T_Other | Steps/s Atomsteps/s Atomsteps/(proc*s)
1 16384000 | 197.104714 127.640728 20.484491 8.130260 40.848965 | 5.073445 8.312333e+07 8.312333e+07 PERFORMANCE
205840
start time: 03:59:26
