macro  KOKKOS_ENABLE_CUDA      : defined
macro  CUDA_VERSION          = 10000 = version 10.0
Kokkos::Cuda[ 0 ] TITAN Xp capability 6.1, Total Global Memory: 11.91 G, Shared Memory per Block: 48 K : Selected

#InputFile:
#=========================================================
# 3d Lennard-Jones melt 

units lj 
atom_style atomic 

newton off 
lattice fcc 0.8442 
region box block 0 160 0 160 0 160 
create_box 1 box 
create_atoms 1 box 
mass 1 2.0 

velocity all create 1.4 87287 loop geom 

pair_style lj/cut 2.5 
pair_coeff 1 1 1.0 1.0 2.5 

neighbor 0.3 bin 
neigh_modify delay 0 every 20 check no 
fix 1 all nve 
thermo 10 

run 1000 
#=========================================================

Using: ForceLJNeighFull Neighbor2D CommMPI BinningKKSort
Atoms: 16384000 16384000

#Timestep Temperature PotE ETot Time Atomsteps/s
0 1.400000 -6.332812 -4.232812 0.000000 0.000000e+00
10 1.267050 -6.133727 -4.233153 2.554278 6.414337e+07
20 0.772060 -5.390506 -4.232416 5.843315 4.981397e+07
30 0.620836 -5.163999 -4.232746 8.487302 6.196702e+07
40 0.717897 -5.309801 -4.232956 11.831913 4.898626e+07
50 0.714219 -5.304150 -4.232821 14.464551 6.223417e+07
60 0.708659 -5.295813 -4.232825 17.807358 4.901270e+07
70 0.717513 -5.309106 -4.232837 20.451517 6.196298e+07
80 0.726147 -5.322056 -4.232835 23.803618 4.887684e+07
90 0.730606 -5.328739 -4.232830 26.452305 6.185702e+07
100 0.733035 -5.332379 -4.232827 29.815597 4.871417e+07
110 0.734786 -5.335005 -4.232826 32.464856 6.184372e+07
120 0.736257 -5.337210 -4.232825 35.825699 4.874967e+07
130 0.737380 -5.338894 -4.232824 38.473636 6.187459e+07
140 0.738246 -5.340193 -4.232824 41.824715 4.889171e+07
150 0.739020 -5.341354 -4.232824 44.471123 6.191032e+07
160 0.739647 -5.342294 -4.232823 47.829616 4.878379e+07
170 0.740063 -5.342918 -4.232823 50.474945 6.193560e+07
180 0.740259 -5.343212 -4.232823 53.829283 4.884421e+07
190 0.740322 -5.343306 -4.232823 56.474088 6.194785e+07
200 0.740314 -5.343293 -4.232822 59.835279 4.874464e+07
210 0.740437 -5.343478 -4.232822 62.479622 6.195868e+07
220 0.740398 -5.343419 -4.232822 65.827751 4.893478e+07
230 0.740185 -5.343100 -4.232822 68.471822 6.196506e+07
240 0.739764 -5.342468 -4.232822 71.828398 4.881165e+07
250 0.739499 -5.342071 -4.232822 74.472279 6.196951e+07
260 0.739279 -5.341741 -4.232822 77.833079 4.875030e+07
270 0.738904 -5.341179 -4.232822 80.477060 6.196715e+07
280 0.738491 -5.340559 -4.232822 83.836082 4.877610e+07
290 0.738081 -5.339944 -4.232822 86.480268 6.196235e+07
300 0.737660 -5.339313 -4.232822 89.831300 4.889241e+07
310 0.737379 -5.338891 -4.232823 92.475622 6.195917e+07
320 0.737097 -5.338468 -4.232823 95.827795 4.887576e+07
330 0.736651 -5.337799 -4.232822 98.472444 6.195150e+07
340 0.736237 -5.337179 -4.232823 101.837749 4.868504e+07
350 0.735631 -5.336269 -4.232823 104.482548 6.194801e+07
360 0.735088 -5.335454 -4.232822 107.854804 4.858468e+07
370 0.734847 -5.335093 -4.232823 110.500025 6.193811e+07
380 0.734393 -5.334412 -4.232823 113.867694 4.865086e+07
390 0.733903 -5.333677 -4.232823 116.512932 6.193772e+07
400 0.733390 -5.332908 -4.232823 119.875413 4.872593e+07
410 0.732848 -5.332095 -4.232823 122.521346 6.192144e+07
420 0.732288 -5.331254 -4.232823 125.879388 4.879033e+07
430 0.731792 -5.330511 -4.232823 128.525300 6.192196e+07
440 0.731328 -5.329815 -4.232823 131.892269 4.866098e+07
450 0.730928 -5.329215 -4.232823 134.538400 6.191681e+07
460 0.730331 -5.328319 -4.232823 137.910398 4.858841e+07
470 0.729847 -5.327594 -4.232823 140.556761 6.191138e+07
480 0.729330 -5.326818 -4.232823 143.913478 4.880959e+07
490 0.728749 -5.325947 -4.232823 146.560274 6.190124e+07
500 0.728307 -5.325283 -4.232824 149.925866 4.868089e+07
510 0.727853 -5.324602 -4.232823 152.572867 6.189648e+07
520 0.727315 -5.323795 -4.232823 155.952418 4.847981e+07
530 0.726704 -5.322878 -4.232823 158.599768 6.188831e+07
540 0.726218 -5.322150 -4.232823 161.968092 4.864140e+07
550 0.725663 -5.321318 -4.232823 164.615990 6.187550e+07
560 0.725051 -5.320399 -4.232823 167.985304 4.862712e+07
570 0.724722 -5.319907 -4.232824 170.633771 6.186220e+07
580 0.724129 -5.319017 -4.232823 173.994283 4.875446e+07
590 0.723559 -5.318162 -4.232823 176.642728 6.186273e+07
600 0.723120 -5.317504 -4.232824 180.003593 4.874935e+07
610 0.722532 -5.316621 -4.232824 182.652458 6.185292e+07
620 0.721955 -5.315755 -4.232823 186.018573 4.867332e+07
630 0.721458 -5.315010 -4.232823 188.667442 6.185281e+07
640 0.721046 -5.314392 -4.232823 192.040004 4.858028e+07
650 0.720543 -5.313638 -4.232824 194.689207 6.184502e+07
660 0.719853 -5.312603 -4.232823 198.053925 4.869353e+07
670 0.719403 -5.311928 -4.232823 200.703208 6.184314e+07
680 0.718974 -5.311285 -4.232824 204.075786 4.858006e+07
690 0.718136 -5.310027 -4.232823 206.725938 6.182287e+07
700 0.717525 -5.309111 -4.232824 210.094034 4.864469e+07
710 0.717047 -5.308394 -4.232823 212.744193 6.182272e+07
720 0.716568 -5.307675 -4.232823 216.126606 4.843879e+07
730 0.716099 -5.306972 -4.232824 218.776963 6.181808e+07
740 0.715492 -5.306061 -4.232823 222.147691 4.860671e+07
750 0.714976 -5.305287 -4.232824 224.798426 6.180927e+07
760 0.714443 -5.304488 -4.232824 228.164477 4.867424e+07
770 0.713977 -5.303788 -4.232823 230.815187 6.180986e+07
780 0.713638 -5.303281 -4.232824 234.200641 4.839529e+07
790 0.713152 -5.302551 -4.232823 236.852000 6.179472e+07
800 0.712705 -5.301881 -4.232824 240.218610 4.866617e+07
810 0.712180 -5.301094 -4.232824 242.870137 6.179081e+07
820 0.711557 -5.300160 -4.232824 246.247728 4.850794e+07
830 0.710920 -5.299204 -4.232824 248.899364 6.178827e+07
840 0.710322 -5.298307 -4.232823 252.265389 4.867463e+07
850 0.709907 -5.297683 -4.232823 254.917173 6.178482e+07
860 0.709583 -5.297198 -4.232824 258.285434 4.864231e+07
870 0.709076 -5.296438 -4.232824 260.937494 6.177840e+07
880 0.708523 -5.295608 -4.232823 264.315611 4.850038e+07
890 0.707954 -5.294754 -4.232823 266.967914 6.177274e+07
900 0.707500 -5.294073 -4.232823 270.350599 4.843490e+07
910 0.707225 -5.293661 -4.232824 273.003090 6.176834e+07
920 0.706554 -5.292654 -4.232823 276.384538 4.845261e+07
930 0.706104 -5.291979 -4.232823 279.037433 6.175896e+07
940 0.705622 -5.291255 -4.232823 282.401241 4.870670e+07
950 0.705257 -5.290709 -4.232823 285.054252 6.175625e+07
960 0.704860 -5.290114 -4.232823 288.435289 4.845851e+07
970 0.704218 -5.289150 -4.232823 291.088520 6.175112e+07
980 0.703663 -5.288318 -4.232823 294.467069 4.849419e+07
990 0.703195 -5.287615 -4.232823 297.120818 6.173906e+07
1000 0.702793 -5.287013 -4.232823 300.505702 4.840343e+07

#Procs Particles | Time T_Force T_Neigh T_Comm T_Other | Steps/s Atomsteps/s Atomsteps/(proc*s)
1 16384000 | 300.505710 204.502556 31.642653 10.176539 54.183710 | 3.327724 5.452143e+07 5.452143e+07 PERFORMANCE
310435
start time: 05:24:38
