macro  KOKKOS_ENABLE_CUDA      : defined
macro  CUDA_VERSION          = 10000 = version 10.0
Kokkos::Cuda[ 0 ] TITAN Xp capability 6.1, Total Global Memory: 11.91 G, Shared Memory per Block: 48 K : Selected

#InputFile:
#=========================================================
# 3d Lennard-Jones melt 

units lj 
atom_style atomic 

newton off 
lattice fcc 0.8442 
region box block 0 160 0 160 0 160 
create_box 1 box 
create_atoms 1 box 
mass 1 2.0 

velocity all create 1.4 87287 loop geom 

pair_style lj/cut 2.5 
pair_coeff 1 1 1.0 1.0 2.5 

neighbor 0.3 bin 
neigh_modify delay 0 every 20 check no 
fix 1 all nve 
thermo 10 

run 1000 
#=========================================================

Using: ForceLJNeighFull Neighbor2D CommMPI BinningKKSort
Atoms: 16384000 16384000

#Timestep Temperature PotE ETot Time Atomsteps/s
0 1.400000 -6.332812 -4.232812 0.000000 0.000000e+00
10 1.267050 -6.133727 -4.233153 2.596764 6.309392e+07
20 0.772060 -5.390506 -4.232416 6.000612 4.813377e+07
30 0.620836 -5.163999 -4.232746 8.740049 5.980789e+07
40 0.717897 -5.309801 -4.232956 12.203789 4.730146e+07
50 0.714219 -5.304150 -4.232821 14.931787 6.005871e+07
60 0.708659 -5.295813 -4.232825 18.402366 4.720826e+07
70 0.717513 -5.309106 -4.232837 21.142002 5.980358e+07
80 0.726147 -5.322056 -4.232835 24.622655 4.707163e+07
90 0.730606 -5.328739 -4.232830 27.366733 5.970676e+07
100 0.733035 -5.332379 -4.232827 30.852709 4.699974e+07
110 0.734786 -5.335005 -4.232826 33.597341 5.969471e+07
120 0.736257 -5.337210 -4.232825 37.072978 4.713957e+07
130 0.737380 -5.338894 -4.232824 39.816386 5.972134e+07
140 0.738246 -5.340193 -4.232824 43.295401 4.709379e+07
150 0.739020 -5.341354 -4.232824 46.037423 5.975153e+07
160 0.739647 -5.342294 -4.232823 49.518647 4.706390e+07
170 0.740063 -5.342918 -4.232823 52.259466 5.977775e+07
180 0.740259 -5.343212 -4.232823 55.757891 4.683250e+07
190 0.740322 -5.343306 -4.232823 58.498007 5.979309e+07
200 0.740314 -5.343293 -4.232822 61.981098 4.703869e+07
210 0.740437 -5.343478 -4.232822 64.720911 5.979969e+07
220 0.740398 -5.343419 -4.232822 68.198259 4.711638e+07
230 0.740185 -5.343100 -4.232822 70.937820 5.980519e+07
240 0.739764 -5.342468 -4.232822 74.418239 4.707479e+07
250 0.739499 -5.342071 -4.232822 77.157956 5.980181e+07
260 0.739279 -5.341741 -4.232822 80.635665 4.711146e+07
270 0.738904 -5.341179 -4.232822 83.375012 5.980989e+07
280 0.738491 -5.340559 -4.232822 86.851375 4.712972e+07
290 0.738081 -5.339944 -4.232822 89.591046 5.980280e+07
300 0.737660 -5.339313 -4.232822 93.063077 4.718852e+07
310 0.737379 -5.338891 -4.232823 95.802831 5.980098e+07
320 0.737097 -5.338468 -4.232823 99.275403 4.718116e+07
330 0.736651 -5.337799 -4.232822 102.015428 5.979508e+07
340 0.736237 -5.337179 -4.232823 105.500636 4.701011e+07
350 0.735631 -5.336269 -4.232823 108.241127 5.978490e+07
360 0.735088 -5.335454 -4.232822 111.741257 4.680969e+07
370 0.734847 -5.335093 -4.232823 114.481957 5.978035e+07
380 0.734393 -5.334412 -4.232823 117.954264 4.718477e+07
390 0.733903 -5.333677 -4.232823 120.695125 5.977683e+07
400 0.733390 -5.332908 -4.232823 124.167319 4.718630e+07
410 0.732848 -5.332095 -4.232823 126.908352 5.977310e+07
420 0.732288 -5.331254 -4.232823 130.395726 4.698091e+07
430 0.731792 -5.330511 -4.232823 133.137170 5.976411e+07
440 0.731328 -5.329815 -4.232823 136.640046 4.677300e+07
450 0.730928 -5.329215 -4.232823 139.381821 5.975691e+07
460 0.730331 -5.328319 -4.232823 142.855416 4.716727e+07
470 0.729847 -5.327594 -4.232823 145.597632 5.974731e+07
480 0.729330 -5.326818 -4.232823 149.091407 4.689484e+07
490 0.728749 -5.325947 -4.232823 151.833720 5.974517e+07
500 0.728307 -5.325283 -4.232824 155.311014 4.711710e+07
510 0.727853 -5.324602 -4.232823 158.053734 5.973633e+07
520 0.727315 -5.323795 -4.232823 161.546468 4.690880e+07
530 0.726704 -5.322878 -4.232823 164.289516 5.972919e+07
540 0.726218 -5.322150 -4.232823 167.777634 4.697089e+07
550 0.725663 -5.321318 -4.232823 170.521056 5.972102e+07
560 0.725051 -5.320399 -4.232823 174.001647 4.707247e+07
570 0.724722 -5.319907 -4.232824 176.745594 5.970962e+07
580 0.724129 -5.319017 -4.232823 180.237218 4.692373e+07
590 0.723559 -5.318162 -4.232823 182.981171 5.970947e+07
600 0.723120 -5.317504 -4.232824 186.467363 4.699683e+07
610 0.722532 -5.316621 -4.232824 189.211679 5.970158e+07
620 0.721955 -5.315755 -4.232823 192.702108 4.693980e+07
630 0.721458 -5.315010 -4.232823 195.446783 5.969377e+07
640 0.721046 -5.314392 -4.232823 198.926178 4.708864e+07
650 0.720543 -5.313638 -4.232824 201.671204 5.968615e+07
660 0.719853 -5.312603 -4.232823 205.158046 4.698807e+07
670 0.719403 -5.311928 -4.232823 207.903131 5.968487e+07
680 0.718974 -5.311285 -4.232824 211.394995 4.692049e+07
690 0.718136 -5.310027 -4.232823 214.140629 5.967294e+07
700 0.717525 -5.309111 -4.232824 217.627477 4.698799e+07
710 0.717047 -5.308394 -4.232823 220.373374 5.966721e+07
720 0.716568 -5.307675 -4.232823 223.869108 4.686855e+07
730 0.716099 -5.306972 -4.232824 226.615072 5.966576e+07
740 0.715492 -5.306061 -4.232823 230.097607 4.704619e+07
750 0.714976 -5.305287 -4.232824 232.843847 5.965976e+07
760 0.714443 -5.304488 -4.232824 236.329786 4.700026e+07
770 0.713977 -5.303788 -4.232823 239.076460 5.965031e+07
780 0.713638 -5.303281 -4.232824 242.571198 4.688191e+07
790 0.713152 -5.302551 -4.232823 245.318163 5.964400e+07
800 0.712705 -5.301881 -4.232824 248.815886 4.684190e+07
810 0.712180 -5.301094 -4.232824 251.562971 5.964142e+07
820 0.711557 -5.300160 -4.232824 255.048173 4.701018e+07
830 0.710920 -5.299204 -4.232824 257.795595 5.963410e+07
840 0.710322 -5.298307 -4.232823 261.283449 4.697444e+07
850 0.709907 -5.297683 -4.232823 264.031004 5.963121e+07
860 0.709583 -5.297198 -4.232824 267.525042 4.689130e+07
870 0.709076 -5.296438 -4.232824 270.272988 5.962273e+07
880 0.708523 -5.295608 -4.232823 273.773944 4.679865e+07
890 0.707954 -5.294754 -4.232823 276.521907 5.962235e+07
900 0.707500 -5.294073 -4.232823 280.014749 4.690735e+07
910 0.707225 -5.293661 -4.232824 282.763228 5.961116e+07
920 0.706554 -5.292654 -4.232823 286.260124 4.685298e+07
930 0.706104 -5.291979 -4.232823 289.008825 5.960633e+07
940 0.705622 -5.291255 -4.232823 292.506398 4.684391e+07
950 0.705257 -5.290709 -4.232823 295.255418 5.959943e+07
960 0.704860 -5.290114 -4.232823 298.764787 4.668645e+07
970 0.704218 -5.289150 -4.232823 301.513786 5.959988e+07
980 0.703663 -5.288318 -4.232823 305.021964 4.670230e+07
990 0.703195 -5.287615 -4.232823 307.771339 5.959173e+07
1000 0.702793 -5.287013 -4.232823 311.258842 4.697917e+07

#Procs Particles | Time T_Force T_Neigh T_Comm T_Other | Steps/s Atomsteps/s Atomsteps/(proc*s)
1 16384000 | 311.258849 211.740752 32.919477 10.729099 55.869274 | 3.212760 5.263786e+07 5.263786e+07 PERFORMANCE
321267
start time: 05:29:54
