macro  KOKKOS_ENABLE_CUDA      : defined
macro  CUDA_VERSION          = 10000 = version 10.0
Kokkos::Cuda[ 0 ] TITAN Xp capability 6.1, Total Global Memory: 11.91 G, Shared Memory per Block: 48 K : Selected

#InputFile:
#=========================================================
# 3d Lennard-Jones melt 

units lj 
atom_style atomic 

newton off 
lattice fcc 0.8442 
region box block 0 160 0 160 0 160 
create_box 1 box 
create_atoms 1 box 
mass 1 2.0 

velocity all create 1.4 87287 loop geom 

pair_style lj/cut 2.5 
pair_coeff 1 1 1.0 1.0 2.5 

neighbor 0.3 bin 
neigh_modify delay 0 every 20 check no 

fix 1 all nve 

timestep 0.005 
thermo 100 

run 1000 
#=========================================================

Using: ForceLJNeighFull Neighbor2D CommMPI BinningKKSort
Atoms: 16384000 16384000

#Timestep Temperature PotE ETot Time Atomsteps/s
0 1.400000 -6.332812 -4.232812 0.000000 0.000000e+00
100 0.733035 -5.332379 -4.232827 200.485023 8.172182e+06
200 0.740314 -5.343293 -4.232822 402.195090 8.122549e+06
300 0.737660 -5.339313 -4.232822 603.840645 8.125148e+06
400 0.733390 -5.332908 -4.232823 805.564437 8.121997e+06
500 0.728307 -5.325283 -4.232824 1007.419133 8.116730e+06
600 0.723120 -5.317504 -4.232824 1209.432456 8.110356e+06
700 0.717525 -5.309111 -4.232824 1411.566485 8.105513e+06
800 0.712705 -5.301881 -4.232824 1613.857074 8.099240e+06
900 0.707500 -5.294073 -4.232823 1816.258077 8.094822e+06
1000 0.702793 -5.287013 -4.232823 2018.777815 8.090076e+06

#Procs Particles | Time T_Force T_Neigh T_Comm T_Other | Steps/s Atomsteps/s Atomsteps/(proc*s)
1 16384000 | 2018.777822 1689.160662 243.278965 35.976485 50.361349 | 0.495349 8.115801e+06 8.115801e+06 PERFORMANCE
2046426
start time: 06:00:46
