macro  KOKKOS_ENABLE_CUDA      : defined
macro  CUDA_VERSION          = 10000 = version 10.0
Kokkos::Cuda[ 0 ] TITAN Xp capability 6.1, Total Global Memory: 11.91 G, Shared Memory per Block: 48 K : Selected

#InputFile:
#=========================================================
# 3d Lennard-Jones melt 

units lj 
atom_style atomic 

newton off 
lattice fcc 0.8442 
region box block 0 160 0 160 0 160 
create_box 1 box 
create_atoms 1 box 
mass 1 2.0 

velocity all create 1.4 87287 loop geom 

pair_style lj/cut 2.5 
pair_coeff 1 1 1.0 1.0 2.5 

neighbor 0.3 bin 
neigh_modify delay 0 every 20 check no 
fix 1 all nve 
thermo 10 

run 1000 
#=========================================================

Using: ForceLJNeighFull Neighbor2D CommMPI BinningKKSort
Atoms: 16384000 16384000

#Timestep Temperature PotE ETot Time Atomsteps/s
0 1.400000 -6.332812 -4.232812 0.000000 0.000000e+00
10 1.267050 -6.133727 -4.233153 3.106062 5.274847e+07
20 0.772060 -5.390506 -4.232416 7.171031 4.030536e+07
30 0.620836 -5.163999 -4.232746 10.447618 5.000323e+07
40 0.717897 -5.309801 -4.232956 14.596461 3.949053e+07
50 0.714219 -5.304150 -4.232821 17.858842 5.022099e+07
60 0.708659 -5.295813 -4.232825 21.996647 3.959587e+07
70 0.717513 -5.309106 -4.232837 25.273291 5.000238e+07
80 0.726147 -5.322056 -4.232835 29.427287 3.944154e+07
90 0.730606 -5.328739 -4.232830 32.709338 4.992001e+07
100 0.733035 -5.332379 -4.232827 36.868377 3.939371e+07
110 0.734786 -5.335005 -4.232826 40.151027 4.991090e+07
120 0.736257 -5.337210 -4.232825 44.311376 3.938131e+07
130 0.737380 -5.338894 -4.232824 47.592368 4.993611e+07
140 0.738246 -5.340193 -4.232824 51.758296 3.932857e+07
150 0.739020 -5.341354 -4.232824 55.037846 4.995809e+07
160 0.739647 -5.342294 -4.232823 59.193317 3.942754e+07
170 0.740063 -5.342918 -4.232823 62.471648 4.997665e+07
180 0.740259 -5.343212 -4.232823 66.632573 3.937586e+07
190 0.740322 -5.343306 -4.232823 69.909957 4.999110e+07
200 0.740314 -5.343293 -4.232822 74.067630 3.940665e+07
210 0.740437 -5.343478 -4.232822 77.344580 4.999771e+07
220 0.740398 -5.343419 -4.232822 81.497651 3.945033e+07
230 0.740185 -5.343100 -4.232822 84.774030 5.000643e+07
240 0.739764 -5.342468 -4.232822 88.930260 3.942034e+07
250 0.739499 -5.342071 -4.232822 92.206832 5.000348e+07
260 0.739279 -5.341741 -4.232822 96.351031 3.953478e+07
270 0.738904 -5.341179 -4.232822 99.627658 5.000265e+07
280 0.738491 -5.340559 -4.232822 103.792580 3.933807e+07
290 0.738081 -5.339944 -4.232822 107.069396 4.999975e+07
300 0.737660 -5.339313 -4.232822 111.223984 3.943593e+07
310 0.737379 -5.338891 -4.232823 114.501261 4.999272e+07
320 0.737097 -5.338468 -4.232823 118.657031 3.942471e+07
330 0.736651 -5.337799 -4.232822 121.934231 4.999389e+07
340 0.736237 -5.337179 -4.232823 126.085282 3.946952e+07
350 0.735631 -5.336269 -4.232823 129.362788 4.998924e+07
360 0.735088 -5.335454 -4.232822 133.521271 3.939898e+07
370 0.734847 -5.335093 -4.232823 136.799206 4.998269e+07
380 0.734393 -5.334412 -4.232823 140.948641 3.948490e+07
390 0.733903 -5.333677 -4.232823 144.226963 4.997678e+07
400 0.733390 -5.332908 -4.232823 148.399024 3.927076e+07
410 0.732848 -5.332095 -4.232823 151.677380 4.997627e+07
420 0.732288 -5.331254 -4.232823 155.832674 3.942923e+07
430 0.731792 -5.330511 -4.232823 159.111616 4.996733e+07
440 0.731328 -5.329815 -4.232823 163.268836 3.941096e+07
450 0.730928 -5.329215 -4.232823 166.548073 4.996284e+07
460 0.730331 -5.328319 -4.232823 170.707493 3.939011e+07
470 0.729847 -5.327594 -4.232823 173.987107 4.995710e+07
480 0.729330 -5.326818 -4.232823 178.140854 3.944391e+07
490 0.728749 -5.325947 -4.232823 181.421024 4.994862e+07
500 0.728307 -5.325283 -4.232824 185.569133 3.949751e+07
510 0.727853 -5.324602 -4.232823 188.849525 4.994526e+07
520 0.727315 -5.323795 -4.232823 193.015160 3.933134e+07
530 0.726704 -5.322878 -4.232823 196.295888 4.994013e+07
540 0.726218 -5.322150 -4.232823 200.461629 3.933034e+07
550 0.725663 -5.321318 -4.232823 203.743043 4.992969e+07
560 0.725051 -5.320399 -4.232823 207.918673 3.923720e+07
570 0.724722 -5.319907 -4.232824 211.200462 4.992398e+07
580 0.724129 -5.319017 -4.232823 215.366202 3.933035e+07
590 0.723559 -5.318162 -4.232823 218.647995 4.992394e+07
600 0.723120 -5.317504 -4.232824 222.821616 3.925608e+07
610 0.722532 -5.316621 -4.232824 226.103885 4.991668e+07
620 0.721955 -5.315755 -4.232823 230.266195 3.936277e+07
630 0.721458 -5.315010 -4.232823 233.548556 4.991529e+07
640 0.721046 -5.314392 -4.232823 237.709763 3.937319e+07
650 0.720543 -5.313638 -4.232824 240.992666 4.990704e+07
660 0.719853 -5.312603 -4.232823 245.166259 3.925635e+07
670 0.719403 -5.311928 -4.232823 248.449648 4.989966e+07
680 0.718974 -5.311285 -4.232824 252.612567 3.935700e+07
690 0.718136 -5.310027 -4.232823 255.896482 4.989168e+07
700 0.717525 -5.309111 -4.232824 260.063581 3.931752e+07
710 0.717047 -5.308394 -4.232823 263.347784 4.988730e+07
720 0.716568 -5.307675 -4.232823 267.520427 3.926528e+07
730 0.716099 -5.306972 -4.232824 270.804987 4.988187e+07
740 0.715492 -5.306061 -4.232823 274.970991 3.932786e+07
750 0.714976 -5.305287 -4.232824 278.255699 4.987962e+07
760 0.714443 -5.304488 -4.232824 282.423117 3.931450e+07
770 0.713977 -5.303788 -4.232823 285.707818 4.987974e+07
780 0.713638 -5.303281 -4.232824 289.882534 3.924578e+07
790 0.713152 -5.302551 -4.232823 293.168152 4.986580e+07
800 0.712705 -5.301881 -4.232824 297.335661 3.931365e+07
810 0.712180 -5.301094 -4.232824 300.621402 4.986394e+07
820 0.711557 -5.300160 -4.232824 304.791156 3.929249e+07
830 0.710920 -5.299204 -4.232824 308.077160 4.985995e+07
840 0.710322 -5.298307 -4.232823 312.242437 3.933472e+07
850 0.709907 -5.297683 -4.232823 315.528577 4.985790e+07
860 0.709583 -5.297198 -4.232824 319.698769 3.928835e+07
870 0.709076 -5.296438 -4.232824 322.985468 4.984941e+07
880 0.708523 -5.295608 -4.232823 327.155307 3.929168e+07
890 0.707954 -5.294754 -4.232823 330.442024 4.984913e+07
900 0.707500 -5.294073 -4.232823 334.605796 3.934894e+07
910 0.707225 -5.293661 -4.232824 337.892986 4.984197e+07
920 0.706554 -5.292654 -4.232823 342.068199 3.924111e+07
930 0.706104 -5.291979 -4.232823 345.355822 4.983540e+07
940 0.705622 -5.291255 -4.232823 349.526969 3.927936e+07
950 0.705257 -5.290709 -4.232823 352.814718 4.983349e+07
960 0.704860 -5.290114 -4.232823 356.994393 3.919922e+07
970 0.704218 -5.289150 -4.232823 360.282111 4.983396e+07
980 0.703663 -5.288318 -4.232823 364.457919 3.923553e+07
990 0.703195 -5.287615 -4.232823 367.746181 4.982571e+07
1000 0.702793 -5.287013 -4.232823 371.922792 3.922798e+07

#Procs Particles | Time T_Force T_Neigh T_Comm T_Other | Steps/s Atomsteps/s Atomsteps/(proc*s)
1 16384000 | 371.922799 253.355201 39.076905 12.669401 66.821016 | 2.688730 4.405215e+07 4.405215e+07 PERFORMANCE
382362
start time: 04:59:01
