macro  KOKKOS_ENABLE_CUDA      : defined
macro  CUDA_VERSION          = 10000 = version 10.0
Kokkos::Cuda[ 0 ] TITAN Xp capability 6.1, Total Global Memory: 11.91 G, Shared Memory per Block: 48 K : Selected

#InputFile:
#=========================================================
# 3d Lennard-Jones melt 

units lj 
atom_style atomic 

newton off 
lattice fcc 0.8442 
region box block 0 160 0 160 0 160 
create_box 1 box 
create_atoms 1 box 
mass 1 2.0 

velocity all create 1.4 87287 loop geom 

pair_style lj/cut 2.5 
pair_coeff 1 1 1.0 1.0 2.5 

neighbor 0.3 bin 
neigh_modify delay 0 every 20 check no 
fix 1 all nve 
thermo 10 

run 1000 
#=========================================================

Using: ForceLJNeighFull Neighbor2D CommMPI BinningKKSort
Atoms: 16384000 16384000

#Timestep Temperature PotE ETot Time Atomsteps/s
0 1.400000 -6.332812 -4.232812 0.000000 0.000000e+00
10 1.267050 -6.133727 -4.233153 2.119807 7.729005e+07
20 0.772060 -5.390506 -4.232416 4.845842 6.010194e+07
30 0.620836 -5.163999 -4.232746 7.040125 7.466677e+07
40 0.717897 -5.309801 -4.232956 9.819587 5.894670e+07
50 0.714219 -5.304150 -4.232821 12.004568 7.498456e+07
60 0.708659 -5.295813 -4.232825 14.781969 5.899041e+07
70 0.717513 -5.309106 -4.232837 16.976233 7.466740e+07
80 0.726147 -5.322056 -4.232835 19.771127 5.862119e+07
90 0.730606 -5.328739 -4.232830 21.969225 7.453717e+07
100 0.733035 -5.332379 -4.232827 24.764536 5.861245e+07
110 0.734786 -5.335005 -4.232826 26.962828 7.453059e+07
120 0.736257 -5.337210 -4.232825 29.760762 5.855749e+07
130 0.737380 -5.338894 -4.232824 31.957992 7.456662e+07
140 0.738246 -5.340193 -4.232824 34.752749 5.862406e+07
150 0.739020 -5.341354 -4.232824 36.949085 7.459696e+07
160 0.739647 -5.342294 -4.232823 39.743592 5.862931e+07
170 0.740063 -5.342918 -4.232823 41.938995 7.462864e+07
180 0.740259 -5.343212 -4.232823 44.726998 5.876609e+07
190 0.740322 -5.343306 -4.232823 46.921943 7.464422e+07
200 0.740314 -5.343293 -4.232822 49.727998 5.838803e+07
210 0.740437 -5.343478 -4.232822 51.922481 7.465996e+07
220 0.740398 -5.343419 -4.232822 54.727860 5.840207e+07
230 0.740185 -5.343100 -4.232822 56.922181 7.466547e+07
240 0.739764 -5.342468 -4.232822 59.716767 5.862765e+07
250 0.739499 -5.342071 -4.232822 61.911045 7.466691e+07
260 0.739279 -5.341741 -4.232822 64.700022 5.874556e+07
270 0.738904 -5.341179 -4.232822 66.894197 7.467045e+07
280 0.738491 -5.340559 -4.232822 69.684690 5.871364e+07
290 0.738081 -5.339944 -4.232822 71.879103 7.466232e+07
300 0.737660 -5.339313 -4.232822 74.667427 5.875931e+07
310 0.737379 -5.338891 -4.232823 76.862120 7.465283e+07
320 0.737097 -5.338468 -4.232823 79.658514 5.858975e+07
330 0.736651 -5.337799 -4.232822 81.853277 7.465043e+07
340 0.736237 -5.337179 -4.232823 84.648120 5.862225e+07
350 0.735631 -5.336269 -4.232823 86.842968 7.464752e+07
360 0.735088 -5.335454 -4.232822 89.639510 5.858665e+07
370 0.734847 -5.335093 -4.232823 91.834747 7.463431e+07
380 0.734393 -5.334412 -4.232823 94.632716 5.855676e+07
390 0.733903 -5.333677 -4.232823 96.828156 7.462743e+07
400 0.733390 -5.332908 -4.232823 99.626486 5.854919e+07
410 0.732848 -5.332095 -4.232823 101.822297 7.461480e+07
420 0.732288 -5.331254 -4.232823 104.615259 5.866174e+07
430 0.731792 -5.330511 -4.232823 106.811108 7.461353e+07
440 0.731328 -5.329815 -4.232823 109.617258 5.838603e+07
450 0.730928 -5.329215 -4.232823 111.813430 7.460254e+07
460 0.730331 -5.328319 -4.232823 114.607925 5.862957e+07
470 0.729847 -5.327594 -4.232823 116.804284 7.459616e+07
480 0.729330 -5.326818 -4.232823 119.607469 5.844780e+07
490 0.728749 -5.325947 -4.232823 121.804098 7.458703e+07
500 0.728307 -5.325283 -4.232824 124.604878 5.849798e+07
510 0.727853 -5.324602 -4.232823 126.801881 7.457432e+07
520 0.727315 -5.323795 -4.232823 129.599959 5.855448e+07
530 0.726704 -5.322878 -4.232823 131.797077 7.457042e+07
540 0.726218 -5.322150 -4.232823 134.600082 5.845155e+07
550 0.725663 -5.321318 -4.232823 136.797573 7.455775e+07
560 0.725051 -5.320399 -4.232823 139.592428 5.862202e+07
570 0.724722 -5.319907 -4.232824 141.790122 7.455085e+07
580 0.724129 -5.319017 -4.232823 144.586531 5.858944e+07
590 0.723559 -5.318162 -4.232823 146.784550 7.453985e+07
600 0.723120 -5.317504 -4.232824 149.598216 5.823007e+07
610 0.722532 -5.316621 -4.232824 151.796552 7.452911e+07
620 0.721955 -5.315755 -4.232823 154.609902 5.823663e+07
630 0.721458 -5.315010 -4.232823 156.808332 7.452591e+07
640 0.721046 -5.314392 -4.232823 159.621314 5.824424e+07
650 0.720543 -5.313638 -4.232824 161.820045 7.451570e+07
660 0.719853 -5.312603 -4.232823 164.631688 5.827199e+07
670 0.719403 -5.311928 -4.232823 166.830514 7.451249e+07
680 0.718974 -5.311285 -4.232824 169.635559 5.840903e+07
690 0.718136 -5.310027 -4.232823 171.834738 7.450053e+07
700 0.717525 -5.309111 -4.232824 174.630033 5.861279e+07
710 0.717047 -5.308394 -4.232823 176.829391 7.449445e+07
720 0.716568 -5.307675 -4.232823 179.627891 5.854564e+07
730 0.716099 -5.306972 -4.232824 181.827339 7.449144e+07
740 0.715492 -5.306061 -4.232823 184.633459 5.838667e+07
750 0.714976 -5.305287 -4.232824 186.833168 7.448257e+07
760 0.714443 -5.304488 -4.232824 189.636875 5.843693e+07
770 0.713977 -5.303788 -4.232823 191.836747 7.447704e+07
780 0.713638 -5.303281 -4.232824 194.636881 5.851148e+07
790 0.713152 -5.302551 -4.232823 196.837176 7.446274e+07
800 0.712705 -5.301881 -4.232824 199.648574 5.827706e+07
810 0.712180 -5.301094 -4.232824 201.849031 7.445728e+07
820 0.711557 -5.300160 -4.232824 204.650321 5.848733e+07
830 0.710920 -5.299204 -4.232824 206.850959 7.445115e+07
840 0.710322 -5.298307 -4.232823 209.666227 5.819694e+07
850 0.709907 -5.297683 -4.232823 211.866919 7.444933e+07
860 0.709583 -5.297198 -4.232824 214.674697 5.835218e+07
870 0.709076 -5.296438 -4.232824 216.875667 7.443991e+07
880 0.708523 -5.295608 -4.232823 219.683230 5.835667e+07
890 0.707954 -5.294754 -4.232823 221.884626 7.442549e+07
900 0.707500 -5.294073 -4.232823 224.690060 5.840096e+07
910 0.707225 -5.293661 -4.232824 226.891576 7.442144e+07
920 0.706554 -5.292654 -4.232823 229.702478 5.828734e+07
930 0.706104 -5.291979 -4.232823 231.904048 7.441963e+07
940 0.705622 -5.291255 -4.232823 234.707834 5.843528e+07
950 0.705257 -5.290709 -4.232823 236.909818 7.440561e+07
960 0.704860 -5.290114 -4.232823 239.717255 5.835927e+07
970 0.704218 -5.289150 -4.232823 241.919062 7.441161e+07
980 0.703663 -5.288318 -4.232823 244.722430 5.844399e+07
990 0.703195 -5.287615 -4.232823 246.924430 7.440507e+07
1000 0.702793 -5.287013 -4.232823 249.732250 5.835132e+07

#Procs Particles | Time T_Force T_Neigh T_Comm T_Other | Steps/s Atomsteps/s Atomsteps/(proc*s)
1 16384000 | 249.732257 169.790145 26.341475 8.356361 45.244040 | 4.004288 6.560626e+07 6.560626e+07 PERFORMANCE
259187
start time: 13:12:12
