macro  KOKKOS_ENABLE_CUDA      : defined
macro  CUDA_VERSION          = 10000 = version 10.0
Kokkos::Cuda[ 0 ] TITAN Xp capability 6.1, Total Global Memory: 11.91 G, Shared Memory per Block: 48 K : Selected

#InputFile:
#=========================================================
# 3d Lennard-Jones melt 

units lj 
atom_style atomic 

newton off 
lattice fcc 0.8442 
region box block 0 160 0 160 0 160 
create_box 1 box 
create_atoms 1 box 
mass 1 2.0 

velocity all create 1.4 87287 loop geom 

pair_style lj/cut 2.5 
pair_coeff 1 1 1.0 1.0 2.5 

neighbor 0.3 bin 
neigh_modify delay 0 every 20 check no 
fix 1 all nve 
thermo 10 

run 1000 
#=========================================================

Using: ForceLJNeighFull Neighbor2D CommMPI BinningKKSort
Atoms: 16384000 16384000

#Timestep Temperature PotE ETot Time Atomsteps/s
0 1.400000 -6.332812 -4.232812 0.000000 0.000000e+00
10 1.267050 -6.133727 -4.233153 2.205148 7.429887e+07
20 0.772060 -5.390506 -4.232416 5.097369 5.664851e+07
30 0.620836 -5.163999 -4.232746 7.424016 7.041892e+07
40 0.717897 -5.309801 -4.232956 10.370833 5.559898e+07
50 0.714219 -5.304150 -4.232821 12.687582 7.071977e+07
60 0.708659 -5.295813 -4.232825 15.629647 5.568879e+07
70 0.717513 -5.309106 -4.232837 17.956240 7.042055e+07
80 0.726147 -5.322056 -4.232835 20.907954 5.550673e+07
90 0.730606 -5.328739 -4.232830 23.238372 7.030500e+07
100 0.733035 -5.332379 -4.232827 26.195962 5.539646e+07
110 0.734786 -5.335005 -4.232826 28.526758 7.029358e+07
120 0.736257 -5.337210 -4.232825 31.492079 5.525203e+07
130 0.737380 -5.338894 -4.232824 33.821791 7.032628e+07
140 0.738246 -5.340193 -4.232824 36.781286 5.536079e+07
150 0.739020 -5.341354 -4.232824 39.110062 7.035456e+07
160 0.739647 -5.342294 -4.232823 42.079451 5.517634e+07
170 0.740063 -5.342918 -4.232823 44.407198 7.038566e+07
180 0.740259 -5.343212 -4.232823 47.363876 5.541353e+07
190 0.740322 -5.343306 -4.232823 49.691159 7.039971e+07
200 0.740314 -5.343293 -4.232822 52.650150 5.537022e+07
210 0.740437 -5.343478 -4.232822 54.977112 7.040939e+07
220 0.740398 -5.343419 -4.232822 57.933987 5.540985e+07
230 0.740185 -5.343100 -4.232822 60.260694 7.041713e+07
240 0.739764 -5.342468 -4.232822 63.222225 5.532274e+07
250 0.739499 -5.342071 -4.232822 65.548807 7.042090e+07
260 0.739279 -5.341741 -4.232822 68.506051 5.540293e+07
270 0.738904 -5.341179 -4.232822 70.832879 7.041344e+07
280 0.738491 -5.340559 -4.232822 73.796017 5.529273e+07
290 0.738081 -5.339944 -4.232822 76.122571 7.042177e+07
300 0.737660 -5.339313 -4.232822 79.083817 5.532806e+07
310 0.737379 -5.338891 -4.232823 81.410798 7.040883e+07
320 0.737097 -5.338468 -4.232823 84.367604 5.541114e+07
330 0.736651 -5.337799 -4.232822 86.694703 7.040524e+07
340 0.736237 -5.337179 -4.232823 89.656716 5.531374e+07
350 0.735631 -5.336269 -4.232823 91.983914 7.040225e+07
360 0.735088 -5.335454 -4.232822 94.942364 5.538035e+07
370 0.734847 -5.335093 -4.232823 97.269952 7.039048e+07
380 0.734393 -5.334412 -4.232823 100.228111 5.538580e+07
390 0.733903 -5.333677 -4.232823 102.555954 7.038273e+07
400 0.733390 -5.332908 -4.232823 105.512469 5.541661e+07
410 0.732848 -5.332095 -4.232823 107.840252 7.038456e+07
420 0.732288 -5.331254 -4.232823 110.798803 5.537846e+07
430 0.731792 -5.330511 -4.232823 113.127143 7.036771e+07
440 0.731328 -5.329815 -4.232823 116.093381 5.523495e+07
450 0.730928 -5.329215 -4.232823 118.421893 7.036253e+07
460 0.730331 -5.328319 -4.232823 121.389822 5.520347e+07
470 0.729847 -5.327594 -4.232823 123.718532 7.035657e+07
480 0.729330 -5.326818 -4.232823 126.680957 5.530603e+07
490 0.728749 -5.325947 -4.232823 129.009951 7.034797e+07
500 0.728307 -5.325283 -4.232824 131.973572 5.528372e+07
510 0.727853 -5.324602 -4.232823 134.302799 7.034094e+07
520 0.727315 -5.323795 -4.232823 137.267463 5.526428e+07
530 0.726704 -5.322878 -4.232823 139.596979 7.033221e+07
540 0.726218 -5.322150 -4.232823 142.560520 5.528520e+07
550 0.725663 -5.321318 -4.232823 144.890572 7.031604e+07
560 0.725051 -5.320399 -4.232823 147.861433 5.514899e+07
570 0.724722 -5.319907 -4.232824 150.191790 7.030682e+07
580 0.724129 -5.319017 -4.232823 153.156875 5.525643e+07
590 0.723559 -5.318162 -4.232823 155.487012 7.031347e+07
600 0.723120 -5.317504 -4.232824 158.452550 5.524798e+07
610 0.722532 -5.316621 -4.232824 160.783447 7.029056e+07
620 0.721955 -5.315755 -4.232823 163.752787 5.517724e+07
630 0.721458 -5.315010 -4.232823 166.083712 7.028968e+07
640 0.721046 -5.314392 -4.232823 169.055295 5.513560e+07
650 0.720543 -5.313638 -4.232824 171.386471 7.028213e+07
660 0.719853 -5.312603 -4.232823 174.358811 5.512155e+07
670 0.719403 -5.311928 -4.232823 176.690148 7.027727e+07
680 0.718974 -5.311285 -4.232824 179.657183 5.522012e+07
690 0.718136 -5.310027 -4.232823 181.988903 7.026573e+07
700 0.717525 -5.309111 -4.232824 184.959356 5.515657e+07
710 0.717047 -5.308394 -4.232823 187.291446 7.025456e+07
720 0.716568 -5.307675 -4.232823 190.262329 5.514860e+07
730 0.716099 -5.306972 -4.232824 192.594535 7.025109e+07
740 0.715492 -5.306061 -4.232823 195.567483 5.511027e+07
750 0.714976 -5.305287 -4.232824 197.899735 7.024970e+07
760 0.714443 -5.304488 -4.232824 200.873911 5.508752e+07
770 0.713977 -5.303788 -4.232823 203.206253 7.024700e+07
780 0.713638 -5.303281 -4.232824 206.178597 5.512148e+07
790 0.713152 -5.302551 -4.232823 208.511449 7.023162e+07
800 0.712705 -5.301881 -4.232824 211.476029 5.526583e+07
810 0.712180 -5.301094 -4.232824 213.809268 7.021999e+07
820 0.711557 -5.300160 -4.232824 216.777269 5.520214e+07
830 0.710920 -5.299204 -4.232824 219.110458 7.022149e+07
840 0.710322 -5.298307 -4.232823 222.077979 5.521107e+07
850 0.709907 -5.297683 -4.232823 224.411740 7.020429e+07
860 0.709583 -5.297198 -4.232824 227.383445 5.513332e+07
870 0.709076 -5.296438 -4.232824 229.717440 7.019724e+07
880 0.708523 -5.295608 -4.232823 232.689171 5.513285e+07
890 0.707954 -5.294754 -4.232823 235.023053 7.020063e+07
900 0.707500 -5.294073 -4.232823 237.994341 5.514107e+07
910 0.707225 -5.293661 -4.232824 240.328319 7.019775e+07
920 0.706554 -5.292654 -4.232823 243.312029 5.491150e+07
930 0.706104 -5.291979 -4.232823 245.646282 7.018948e+07
940 0.705622 -5.291255 -4.232823 248.624016 5.502170e+07
950 0.705257 -5.290709 -4.232823 250.958500 7.018251e+07
960 0.704860 -5.290114 -4.232823 253.932851 5.508430e+07
970 0.704218 -5.289150 -4.232823 256.267582 7.017509e+07
980 0.703663 -5.288318 -4.232823 259.236830 5.517895e+07
990 0.703195 -5.287615 -4.232823 261.571895 7.016508e+07
1000 0.702793 -5.287013 -4.232823 264.542571 5.515243e+07

#Procs Particles | Time T_Force T_Neigh T_Comm T_Other | Steps/s Atomsteps/s Atomsteps/(proc*s)
1 16384000 | 264.542578 179.974398 27.872722 8.918883 47.776329 | 3.780110 6.193332e+07 6.193332e+07 PERFORMANCE
274163
start time: 05:05:11
