macro  KOKKOS_ENABLE_CUDA      : defined
macro  CUDA_VERSION          = 10000 = version 10.0
Kokkos::Cuda[ 0 ] TITAN Xp capability 6.1, Total Global Memory: 11.91 G, Shared Memory per Block: 48 K : Selected

#InputFile:
#=========================================================
# 3d Lennard-Jones melt 

units lj 
atom_style atomic 

newton off 
lattice fcc 0.8442 
region box block 0 160 0 160 0 160 
create_box 1 box 
create_atoms 1 box 
mass 1 2.0 

velocity all create 1.4 87287 loop geom 

pair_style lj/cut 2.5 
pair_coeff 1 1 1.0 1.0 2.5 

neighbor 0.3 bin 
neigh_modify delay 0 every 20 check no 
fix 1 all nve 
thermo 10 

run 1000 
#=========================================================

Using: ForceLJNeighFull Neighbor2D CommMPI BinningKKSort
Atoms: 16384000 16384000

#Timestep Temperature PotE ETot Time Atomsteps/s
0 1.400000 -6.332812 -4.232812 0.000000 0.000000e+00
10 1.267050 -6.133727 -4.233153 2.387777 6.861613e+07
20 0.772060 -5.390506 -4.232416 5.446653 5.356215e+07
30 0.620836 -5.163999 -4.232746 7.918213 6.629012e+07
40 0.717897 -5.309801 -4.232956 11.043931 5.241676e+07
50 0.714219 -5.304150 -4.232821 13.504679 6.658140e+07
60 0.708659 -5.295813 -4.232825 16.632303 5.238480e+07
70 0.717513 -5.309106 -4.232837 19.104089 6.628407e+07
80 0.726147 -5.322056 -4.232835 22.237730 5.228423e+07
90 0.730606 -5.328739 -4.232830 24.713788 6.616968e+07
100 0.733035 -5.332379 -4.232827 27.850899 5.222640e+07
110 0.734786 -5.335005 -4.232826 30.326905 6.617108e+07
120 0.736257 -5.337210 -4.232825 33.466640 5.218275e+07
130 0.737380 -5.338894 -4.232824 35.941564 6.620001e+07
140 0.738246 -5.340193 -4.232824 39.088380 5.206533e+07
150 0.739020 -5.341354 -4.232824 41.562220 6.622900e+07
160 0.739647 -5.342294 -4.232823 44.699484 5.222386e+07
170 0.740063 -5.342918 -4.232823 47.172290 6.625671e+07
180 0.740259 -5.343212 -4.232823 50.311853 5.218560e+07
190 0.740322 -5.343306 -4.232823 52.784176 6.626968e+07
200 0.740314 -5.343293 -4.232822 55.928978 5.209867e+07
210 0.740437 -5.343478 -4.232822 58.400792 6.628329e+07
220 0.740398 -5.343419 -4.232822 61.535923 5.225938e+07
230 0.740185 -5.343100 -4.232822 64.007674 6.628500e+07
240 0.739764 -5.342468 -4.232822 67.145345 5.221707e+07
250 0.739499 -5.342071 -4.232822 69.617044 6.628641e+07
260 0.739279 -5.341741 -4.232822 72.759610 5.213574e+07
270 0.738904 -5.341179 -4.232822 75.231286 6.628698e+07
280 0.738491 -5.340559 -4.232822 78.363722 5.230434e+07
290 0.738081 -5.339944 -4.232822 80.835332 6.628878e+07
300 0.737660 -5.339313 -4.232822 83.970582 5.225740e+07
310 0.737379 -5.338891 -4.232823 86.442619 6.627732e+07
320 0.737097 -5.338468 -4.232823 89.584279 5.215078e+07
330 0.736651 -5.337799 -4.232822 92.056376 6.627573e+07
340 0.736237 -5.337179 -4.232823 95.194339 5.221220e+07
350 0.735631 -5.336269 -4.232823 97.666597 6.627142e+07
360 0.735088 -5.335454 -4.232822 100.810797 5.210864e+07
370 0.734847 -5.335093 -4.232823 103.283541 6.625838e+07
380 0.734393 -5.334412 -4.232823 106.431617 5.204449e+07
390 0.733903 -5.333677 -4.232823 108.904594 6.625212e+07
400 0.733390 -5.332908 -4.232823 112.046413 5.214813e+07
410 0.732848 -5.332095 -4.232823 114.519662 6.624486e+07
420 0.732288 -5.331254 -4.232823 117.661801 5.214281e+07
430 0.731792 -5.330511 -4.232823 120.135143 6.624237e+07
440 0.731328 -5.329815 -4.232823 123.271638 5.223664e+07
450 0.730928 -5.329215 -4.232823 125.745149 6.623785e+07
460 0.730331 -5.328319 -4.232823 128.880631 5.225352e+07
470 0.729847 -5.327594 -4.232823 131.354594 6.622574e+07
480 0.729330 -5.326818 -4.232823 134.498580 5.211218e+07
490 0.728749 -5.325947 -4.232823 136.972898 6.621624e+07
500 0.728307 -5.325283 -4.232824 140.113620 5.216635e+07
510 0.727853 -5.324602 -4.232823 142.588333 6.620565e+07
520 0.727315 -5.323795 -4.232823 145.725711 5.222195e+07
530 0.726704 -5.322878 -4.232823 148.200470 6.620442e+07
540 0.726218 -5.322150 -4.232823 151.344796 5.210655e+07
550 0.725663 -5.321318 -4.232823 153.820060 6.619092e+07
560 0.725051 -5.320399 -4.232823 156.967992 5.204688e+07
570 0.724722 -5.319907 -4.232824 159.443572 6.618246e+07
580 0.724129 -5.319017 -4.232823 162.586063 5.213699e+07
590 0.723559 -5.318162 -4.232823 165.061847 6.617701e+07
600 0.723120 -5.317504 -4.232824 168.203899 5.214427e+07
610 0.722532 -5.316621 -4.232824 170.679911 6.617092e+07
620 0.721955 -5.315755 -4.232823 173.823269 5.212261e+07
630 0.721458 -5.315010 -4.232823 176.299556 6.616358e+07
640 0.721046 -5.314392 -4.232823 179.446189 5.206835e+07
650 0.720543 -5.313638 -4.232824 181.922770 6.615570e+07
660 0.719853 -5.312603 -4.232823 185.075650 5.196520e+07
670 0.719403 -5.311928 -4.232823 187.552386 6.615159e+07
680 0.718974 -5.311285 -4.232824 190.698358 5.207929e+07
690 0.718136 -5.310027 -4.232823 193.175573 6.613878e+07
700 0.717525 -5.309111 -4.232824 196.318504 5.212969e+07
710 0.717047 -5.308394 -4.232823 198.795912 6.613364e+07
720 0.716568 -5.307675 -4.232823 201.945100 5.202610e+07
730 0.716099 -5.306972 -4.232824 204.422567 6.613206e+07
740 0.715492 -5.306061 -4.232823 207.566324 5.211600e+07
750 0.714976 -5.305287 -4.232824 210.044086 6.612417e+07
760 0.714443 -5.304488 -4.232824 213.193709 5.201893e+07
770 0.713977 -5.303788 -4.232823 215.671766 6.611631e+07
780 0.713638 -5.303281 -4.232824 218.816248 5.210396e+07
790 0.713152 -5.302551 -4.232823 221.294507 6.611098e+07
800 0.712705 -5.301881 -4.232824 224.446115 5.198614e+07
810 0.712180 -5.301094 -4.232824 226.924723 6.610160e+07
820 0.711557 -5.300160 -4.232824 230.070326 5.208541e+07
830 0.710920 -5.299204 -4.232824 232.549129 6.609642e+07
840 0.710322 -5.298307 -4.232823 235.705635 5.190549e+07
850 0.709907 -5.297683 -4.232823 238.184574 6.609280e+07
860 0.709583 -5.297198 -4.232824 241.330697 5.207678e+07
870 0.709076 -5.296438 -4.232824 243.809903 6.608569e+07
880 0.708523 -5.295608 -4.232823 246.965998 5.191224e+07
890 0.707954 -5.294754 -4.232823 249.445478 6.607837e+07
900 0.707500 -5.294073 -4.232823 252.600907 5.192321e+07
910 0.707225 -5.293661 -4.232824 255.080377 6.607864e+07
920 0.706554 -5.292654 -4.232823 258.230449 5.201151e+07
930 0.706104 -5.291979 -4.232823 260.710443 6.606468e+07
940 0.705622 -5.291255 -4.232823 263.868183 5.188522e+07
950 0.705257 -5.290709 -4.232823 266.348572 6.605416e+07
960 0.704860 -5.290114 -4.232823 269.500449 5.198172e+07
970 0.704218 -5.289150 -4.232823 271.980896 6.605260e+07
980 0.703663 -5.288318 -4.232823 275.131909 5.199598e+07
990 0.703195 -5.287615 -4.232823 277.612501 6.604874e+07
1000 0.702793 -5.287013 -4.232823 280.759179 5.206761e+07

#Procs Particles | Time T_Force T_Neigh T_Comm T_Other | Steps/s Atomsteps/s Atomsteps/(proc*s)
1 16384000 | 280.759186 191.376072 29.467503 9.237905 50.677457 | 3.561771 5.835606e+07 5.835606e+07 PERFORMANCE
290177
start time: 05:14:38
