macro  KOKKOS_ENABLE_CUDA      : defined
macro  CUDA_VERSION          = 10000 = version 10.0
Kokkos::Cuda[ 0 ] TITAN Xp capability 6.1, Total Global Memory: 11.91 G, Shared Memory per Block: 48 K : Selected

#InputFile:
#=========================================================
# 3d Lennard-Jones melt 

units lj 
atom_style atomic 

newton off 
lattice fcc 0.8442 
region box block 0 160 0 160 0 160 
create_box 1 box 
create_atoms 1 box 
mass 1 2.0 

velocity all create 1.4 87287 loop geom 

pair_style lj/cut 2.5 
pair_coeff 1 1 1.0 1.0 2.5 

neighbor 0.3 bin 
neigh_modify delay 0 every 20 check no 
fix 1 all nve 
thermo 10 

run 1000 
#=========================================================

Using: ForceLJNeighFull Neighbor2D CommMPI BinningKKSort
Atoms: 16384000 16384000

#Timestep Temperature PotE ETot Time Atomsteps/s
0 1.400000 -6.332812 -4.232812 0.000000 0.000000e+00
10 1.267050 -6.133727 -4.233153 1.895579 8.643268e+07
20 0.772060 -5.390506 -4.232416 4.342609 6.695464e+07
30 0.620836 -5.163999 -4.232746 6.305224 8.348045e+07
40 0.717897 -5.309801 -4.232956 8.802029 6.561987e+07
50 0.714219 -5.304150 -4.232821 10.756319 8.383607e+07
60 0.708659 -5.295813 -4.232825 13.252577 6.563424e+07
70 0.717513 -5.309106 -4.232837 15.215289 8.347634e+07
80 0.726147 -5.322056 -4.232835 17.722727 6.534157e+07
90 0.730606 -5.328739 -4.232830 19.688418 8.334983e+07
100 0.733035 -5.332379 -4.232827 22.193374 6.540636e+07
110 0.734786 -5.335005 -4.232826 24.159529 8.333015e+07
120 0.736257 -5.337210 -4.232825 26.667495 6.532784e+07
130 0.737380 -5.338894 -4.232824 28.632567 8.337607e+07
140 0.738246 -5.340193 -4.232824 31.133337 6.551583e+07
150 0.739020 -5.341354 -4.232824 33.097481 8.341547e+07
160 0.739647 -5.342294 -4.232823 35.599521 6.548257e+07
170 0.740063 -5.342918 -4.232823 37.562743 8.345462e+07
180 0.740259 -5.343212 -4.232823 40.056075 6.571127e+07
190 0.740322 -5.343306 -4.232823 42.019051 8.346511e+07
200 0.740314 -5.343293 -4.232822 44.516997 6.558988e+07
210 0.740437 -5.343478 -4.232822 46.479128 8.350103e+07
220 0.740398 -5.343419 -4.232822 48.990321 6.524389e+07
230 0.740185 -5.343100 -4.232822 50.952121 8.351516e+07
240 0.739764 -5.342468 -4.232822 53.449646 6.560096e+07
250 0.739499 -5.342071 -4.232822 55.411663 8.350587e+07
260 0.739279 -5.341741 -4.232822 57.910417 6.556867e+07
270 0.738904 -5.341179 -4.232822 59.872759 8.349209e+07
280 0.738491 -5.340559 -4.232822 62.375434 6.546595e+07
290 0.738081 -5.339944 -4.232822 64.337830 8.348980e+07
300 0.737660 -5.339313 -4.232822 66.845294 6.534092e+07
310 0.737379 -5.338891 -4.232823 68.807908 8.348048e+07
320 0.737097 -5.338468 -4.232823 71.305270 6.560522e+07
330 0.736651 -5.337799 -4.232822 73.267872 8.348103e+07
340 0.736237 -5.337179 -4.232823 75.766197 6.557994e+07
350 0.735631 -5.336269 -4.232823 77.728736 8.348367e+07
360 0.735088 -5.335454 -4.232822 80.230633 6.548632e+07
370 0.734847 -5.335093 -4.232823 82.193777 8.345798e+07
380 0.734393 -5.334412 -4.232823 84.701024 6.534657e+07
390 0.733903 -5.333677 -4.232823 86.664299 8.345238e+07
400 0.733390 -5.332908 -4.232823 89.168399 6.542871e+07
410 0.732848 -5.332095 -4.232823 91.131810 8.344666e+07
420 0.732288 -5.331254 -4.232823 93.632515 6.551748e+07
430 0.731792 -5.330511 -4.232823 95.595880 8.344856e+07
440 0.731328 -5.329815 -4.232823 98.101316 6.539381e+07
450 0.730928 -5.329215 -4.232823 100.064668 8.344911e+07
460 0.730331 -5.328319 -4.232823 102.566727 6.548207e+07
470 0.729847 -5.327594 -4.232823 104.530693 8.342304e+07
480 0.729330 -5.326818 -4.232823 107.040870 6.527031e+07
490 0.728749 -5.325947 -4.232823 109.004893 8.342062e+07
500 0.728307 -5.325283 -4.232824 111.508885 6.543150e+07
510 0.727853 -5.324602 -4.232823 113.473364 8.340127e+07
520 0.727315 -5.323795 -4.232823 115.981086 6.533419e+07
530 0.726704 -5.322878 -4.232823 117.945786 8.339189e+07
540 0.726218 -5.322150 -4.232823 120.453802 6.532654e+07
550 0.725663 -5.321318 -4.232823 122.419028 8.336951e+07
560 0.725051 -5.320399 -4.232823 124.927075 6.532574e+07
570 0.724722 -5.319907 -4.232824 126.892249 8.337177e+07
580 0.724129 -5.319017 -4.232823 129.398324 6.537712e+07
590 0.723559 -5.318162 -4.232823 131.363449 8.337383e+07
600 0.723120 -5.317504 -4.232824 133.866914 6.544529e+07
610 0.722532 -5.316621 -4.232824 135.832473 8.335544e+07
620 0.721955 -5.315755 -4.232823 138.335284 6.546239e+07
630 0.721458 -5.315010 -4.232823 140.301050 8.334665e+07
640 0.721046 -5.314392 -4.232823 142.803082 6.548278e+07
650 0.720543 -5.313638 -4.232824 144.768888 8.334493e+07
660 0.719853 -5.312603 -4.232823 147.269459 6.552103e+07
670 0.719403 -5.311928 -4.232823 149.235409 8.333886e+07
680 0.718974 -5.311285 -4.232824 151.738492 6.545528e+07
690 0.718136 -5.310027 -4.232823 153.704830 8.332239e+07
700 0.717525 -5.309111 -4.232824 156.216664 6.522724e+07
710 0.717047 -5.308394 -4.232823 158.183172 8.331522e+07
720 0.716568 -5.307675 -4.232823 160.695362 6.521798e+07
730 0.716099 -5.306972 -4.232824 162.662259 8.329872e+07
740 0.715492 -5.306061 -4.232823 165.171490 6.529491e+07
750 0.714976 -5.305287 -4.232824 167.138579 8.329059e+07
760 0.714443 -5.304488 -4.232824 169.647592 6.530059e+07
770 0.713977 -5.303788 -4.232823 171.614458 8.330002e+07
780 0.713638 -5.303281 -4.232824 174.125477 6.524841e+07
790 0.713152 -5.302551 -4.232823 176.092508 8.329306e+07
800 0.712705 -5.301881 -4.232824 178.600142 6.533649e+07
810 0.712180 -5.301094 -4.232824 180.567645 8.327304e+07
820 0.711557 -5.300160 -4.232824 183.078279 6.525842e+07
830 0.710920 -5.299204 -4.232824 185.046091 8.326002e+07
840 0.710322 -5.298307 -4.232823 187.558060 6.522371e+07
850 0.709907 -5.297683 -4.232823 189.526168 8.324747e+07
860 0.709583 -5.297198 -4.232824 192.037733 6.523422e+07
870 0.709076 -5.296438 -4.232824 194.005844 8.324734e+07
880 0.708523 -5.295608 -4.232823 196.512694 6.535693e+07
890 0.707954 -5.294754 -4.232823 198.480947 8.324133e+07
900 0.707500 -5.294073 -4.232823 200.994671 6.517820e+07
910 0.707225 -5.293661 -4.232824 202.963137 8.323231e+07
920 0.706554 -5.292654 -4.232823 205.467631 6.541842e+07
930 0.706104 -5.291979 -4.232823 207.436229 8.322673e+07
940 0.705622 -5.291255 -4.232823 209.951524 6.513749e+07
950 0.705257 -5.290709 -4.232823 211.920184 8.322410e+07
960 0.704860 -5.290114 -4.232823 214.436062 6.512240e+07
970 0.704218 -5.289150 -4.232823 216.405066 8.320960e+07
980 0.703663 -5.288318 -4.232823 218.916115 6.524763e+07
990 0.703195 -5.287615 -4.232823 220.885124 8.320935e+07
1000 0.702793 -5.287013 -4.232823 223.391000 6.538234e+07

#Procs Particles | Time T_Force T_Neigh T_Comm T_Other | Steps/s Atomsteps/s Atomsteps/(proc*s)
1 16384000 | 223.391007 151.301229 23.725723 8.136208 40.227598 | 4.476456 7.334225e+07 7.334225e+07 PERFORMANCE
232202
start time: 04:45:14
