macro  KOKKOS_ENABLE_CUDA      : defined
macro  CUDA_VERSION          = 10000 = version 10.0
Kokkos::Cuda[ 0 ] TITAN Xp capability 6.1, Total Global Memory: 11.91 G, Shared Memory per Block: 48 K : Selected

#InputFile:
#=========================================================
# 3d Lennard-Jones melt 

units lj 
atom_style atomic 

newton off 
lattice fcc 0.8442 
region box block 0 160 0 160 0 160 
create_box 1 box 
create_atoms 1 box 
mass 1 2.0 

velocity all create 1.4 87287 loop geom 

pair_style lj/cut 2.5 
pair_coeff 1 1 1.0 1.0 2.5 

neighbor 0.3 bin 
neigh_modify delay 0 every 20 check no 
fix 1 all nve 
thermo 10 

run 1000 
#=========================================================

Using: ForceLJNeighFull Neighbor2D CommMPI BinningKKSort
Atoms: 16384000 16384000

#Timestep Temperature PotE ETot Time Atomsteps/s
0 1.400000 -6.332812 -4.232812 0.000000 0.000000e+00
10 1.267050 -6.133727 -4.233153 4.731197 3.462972e+07
20 0.772060 -5.390506 -4.232416 10.859132 2.673658e+07
30 0.620836 -5.163999 -4.232746 15.854286 3.279979e+07
40 0.717897 -5.309801 -4.232956 22.114075 2.617341e+07
50 0.714219 -5.304150 -4.232821 27.087632 3.294221e+07
60 0.708659 -5.295813 -4.232825 33.337665 2.621426e+07
70 0.717513 -5.309106 -4.232837 38.332741 3.280030e+07
80 0.726147 -5.322056 -4.232835 44.590615 2.618142e+07
90 0.730606 -5.328739 -4.232830 49.594763 3.274083e+07
100 0.733035 -5.332379 -4.232827 55.854610 2.617316e+07
110 0.734786 -5.335005 -4.232826 60.859426 3.273647e+07
120 0.736257 -5.337210 -4.232825 67.139060 2.609069e+07
130 0.737380 -5.338894 -4.232824 72.141451 3.275234e+07
140 0.738246 -5.340193 -4.232824 78.414868 2.611655e+07
150 0.739020 -5.341354 -4.232824 83.414810 3.276838e+07
160 0.739647 -5.342294 -4.232823 89.677639 2.616070e+07
170 0.740063 -5.342918 -4.232823 94.675255 3.278364e+07
180 0.740259 -5.343212 -4.232823 100.953378 2.609697e+07
190 0.740322 -5.343306 -4.232823 105.949560 3.279304e+07
200 0.740314 -5.343293 -4.232822 112.211094 2.616611e+07
210 0.740437 -5.343478 -4.232822 117.206427 3.279861e+07
220 0.740398 -5.343419 -4.232822 123.466600 2.617180e+07
230 0.740185 -5.343100 -4.232822 128.461936 3.279860e+07
240 0.739764 -5.342468 -4.232822 134.740121 2.609671e+07
250 0.739499 -5.342071 -4.232822 139.735569 3.279786e+07
260 0.739279 -5.341741 -4.232822 145.998300 2.616111e+07
270 0.738904 -5.341179 -4.232822 150.993416 3.280004e+07
280 0.738491 -5.340559 -4.232822 157.256952 2.615775e+07
290 0.738081 -5.339944 -4.232822 162.252594 3.279659e+07
300 0.737660 -5.339313 -4.232822 168.516575 2.615589e+07
310 0.737379 -5.338891 -4.232823 173.512711 3.279335e+07
320 0.737097 -5.338468 -4.232823 179.783412 2.612786e+07
330 0.736651 -5.337799 -4.232822 184.779704 3.279232e+07
340 0.736237 -5.337179 -4.232823 191.051317 2.612406e+07
350 0.735631 -5.336269 -4.232823 196.048142 3.278882e+07
360 0.735088 -5.335454 -4.232822 202.316103 2.613928e+07
370 0.734847 -5.335093 -4.232823 207.313288 3.278646e+07
380 0.734393 -5.334412 -4.232823 213.594769 2.608302e+07
390 0.733903 -5.333677 -4.232823 218.592373 3.278371e+07
400 0.733390 -5.332908 -4.232823 224.868118 2.610686e+07
410 0.732848 -5.332095 -4.232823 229.866403 3.277924e+07
420 0.732288 -5.331254 -4.232823 236.141291 2.611043e+07
430 0.731792 -5.330511 -4.232823 241.140165 3.277538e+07
440 0.731328 -5.329815 -4.232823 247.405716 2.614934e+07
450 0.730928 -5.329215 -4.232823 252.405204 3.277136e+07
460 0.730331 -5.328319 -4.232823 258.677140 2.612271e+07
470 0.729847 -5.327594 -4.232823 263.677359 3.276657e+07
480 0.729330 -5.326818 -4.232823 269.950323 2.611843e+07
490 0.728749 -5.325947 -4.232823 274.951080 3.276304e+07
500 0.728307 -5.325283 -4.232824 281.239297 2.605508e+07
510 0.727853 -5.324602 -4.232823 286.240814 3.275806e+07
520 0.727315 -5.323795 -4.232823 292.513583 2.611925e+07
530 0.726704 -5.322878 -4.232823 297.515420 3.275597e+07
540 0.726218 -5.322150 -4.232823 303.792580 2.610097e+07
550 0.725663 -5.321318 -4.232823 308.794573 3.275495e+07
560 0.725051 -5.320399 -4.232823 315.080945 2.606273e+07
570 0.724722 -5.319907 -4.232824 320.084287 3.274611e+07
580 0.724129 -5.319017 -4.232823 326.360914 2.610319e+07
590 0.723559 -5.318162 -4.232823 331.364573 3.274404e+07
600 0.723120 -5.317504 -4.232824 337.651614 2.605996e+07
610 0.722532 -5.316621 -4.232824 342.656036 3.273904e+07
620 0.721955 -5.315755 -4.232823 348.944253 2.605508e+07
630 0.721458 -5.315010 -4.232823 353.949210 3.273554e+07
640 0.721046 -5.314392 -4.232823 360.226485 2.610050e+07
650 0.720543 -5.313638 -4.232824 365.231792 3.273326e+07
660 0.719853 -5.312603 -4.232823 371.515264 2.607476e+07
670 0.719403 -5.311928 -4.232823 376.520894 3.273114e+07
680 0.718974 -5.311285 -4.232824 382.798590 2.609875e+07
690 0.718136 -5.310027 -4.232823 387.805170 3.272493e+07
700 0.717525 -5.309111 -4.232824 394.092013 2.606077e+07
710 0.717047 -5.308394 -4.232823 399.099044 3.272198e+07
720 0.716568 -5.307675 -4.232823 405.375877 2.610234e+07
730 0.716099 -5.306972 -4.232824 410.383419 3.271865e+07
740 0.715492 -5.306061 -4.232823 416.666445 2.607661e+07
750 0.714976 -5.305287 -4.232824 421.674189 3.271733e+07
760 0.714443 -5.304488 -4.232824 427.963283 2.605144e+07
770 0.713977 -5.303788 -4.232823 432.971684 3.271304e+07
780 0.713638 -5.303281 -4.232824 439.261890 2.604684e+07
790 0.713152 -5.302551 -4.232823 444.270696 3.271039e+07
800 0.712705 -5.301881 -4.232824 450.570579 2.600683e+07
810 0.712180 -5.301094 -4.232824 455.579970 3.270658e+07
820 0.711557 -5.300160 -4.232824 461.870483 2.604558e+07
830 0.710920 -5.299204 -4.232824 466.880681 3.270129e+07
840 0.710322 -5.298307 -4.232823 473.178303 2.601617e+07
850 0.709907 -5.297683 -4.232823 478.188904 3.269867e+07
860 0.709583 -5.297198 -4.232824 484.476601 2.605724e+07
870 0.709076 -5.296438 -4.232824 489.487417 3.269727e+07
880 0.708523 -5.295608 -4.232823 495.775190 2.605692e+07
890 0.707954 -5.294754 -4.232823 500.786126 3.269649e+07
900 0.707500 -5.294073 -4.232823 507.087561 2.600043e+07
910 0.707225 -5.293661 -4.232824 512.098886 3.269395e+07
920 0.706554 -5.292654 -4.232823 518.390296 2.604185e+07
930 0.706104 -5.291979 -4.232823 523.402734 3.268669e+07
940 0.705622 -5.291255 -4.232823 529.702230 2.600843e+07
950 0.705257 -5.290709 -4.232823 534.714927 3.268500e+07
960 0.704860 -5.290114 -4.232823 541.007569 2.603676e+07
970 0.704218 -5.289150 -4.232823 546.020290 3.268484e+07
980 0.703663 -5.288318 -4.232823 552.320080 2.600721e+07
990 0.703195 -5.287615 -4.232823 557.333702 3.267897e+07
1000 0.702793 -5.287013 -4.232823 563.641678 2.597346e+07

#Procs Particles | Time T_Force T_Neigh T_Comm T_Other | Steps/s Atomsteps/s Atomsteps/(proc*s)
1 16384000 | 563.641685 389.828230 58.043512 14.633013 101.136663 | 1.774177 2.906811e+07 2.906811e+07 PERFORMANCE
575716
start time: 17:46:32
