macro  KOKKOS_ENABLE_CUDA      : defined
macro  CUDA_VERSION          = 10000 = version 10.0
Kokkos::Cuda[ 0 ] TITAN Xp capability 6.1, Total Global Memory: 11.91 G, Shared Memory per Block: 48 K : Selected

#InputFile:
#=========================================================
# 3d Lennard-Jones melt 

units lj 
atom_style atomic 

newton off 
lattice fcc 0.8442 
region box block 0 160 0 160 0 160 
create_box 1 box 
create_atoms 1 box 
mass 1 2.0 

velocity all create 1.4 87287 loop geom 

pair_style lj/cut 2.5 
pair_coeff 1 1 1.0 1.0 2.5 

neighbor 0.3 bin 
neigh_modify delay 0 every 20 check no 
fix 1 all nve 
thermo 10 

run 1000 
#=========================================================

Using: ForceLJNeighFull Neighbor2D CommMPI BinningKKSort
Atoms: 16384000 16384000

#Timestep Temperature PotE ETot Time Atomsteps/s
0 1.400000 -6.332812 -4.232812 0.000000 0.000000e+00
10 1.267050 -6.133727 -4.233153 10.400239 1.575348e+07
20 0.772060 -5.390506 -4.232416 23.473835 1.253213e+07
30 0.620836 -5.163999 -4.232746 34.251656 1.520159e+07
40 0.717897 -5.309801 -4.232956 47.594182 1.227953e+07
50 0.714219 -5.304150 -4.232821 58.325938 1.526684e+07
60 0.708659 -5.295813 -4.232825 71.658484 1.228873e+07
70 0.717513 -5.309106 -4.232837 82.438003 1.519919e+07
80 0.726147 -5.322056 -4.232835 95.809468 1.225296e+07
90 0.730606 -5.328739 -4.232830 106.608625 1.517155e+07
100 0.733035 -5.332379 -4.232827 120.003354 1.223168e+07
110 0.734786 -5.335005 -4.232826 130.803620 1.517000e+07
120 0.736257 -5.337210 -4.232825 144.197002 1.223291e+07
130 0.737380 -5.338894 -4.232824 154.991601 1.517796e+07
140 0.738246 -5.340193 -4.232824 168.384775 1.223310e+07
150 0.739020 -5.341354 -4.232824 179.174744 1.518447e+07
160 0.739647 -5.342294 -4.232823 192.566212 1.223466e+07
170 0.740063 -5.342918 -4.232823 203.350858 1.519197e+07
180 0.740259 -5.343212 -4.232823 216.733582 1.224265e+07
190 0.740322 -5.343306 -4.232823 227.515601 1.519567e+07
200 0.740314 -5.343293 -4.232822 240.893568 1.224700e+07
210 0.740437 -5.343478 -4.232822 251.675003 1.519649e+07
220 0.740398 -5.343419 -4.232822 265.058522 1.224192e+07
230 0.740185 -5.343100 -4.232822 275.839775 1.519675e+07
240 0.739764 -5.342468 -4.232822 289.220854 1.224415e+07
250 0.739499 -5.342071 -4.232822 300.000018 1.519970e+07
260 0.739279 -5.341741 -4.232822 313.399779 1.222708e+07
270 0.738904 -5.341179 -4.232822 324.181311 1.519636e+07
280 0.738491 -5.340559 -4.232822 337.577745 1.223012e+07
290 0.738081 -5.339944 -4.232822 348.357603 1.519872e+07
300 0.737660 -5.339313 -4.232822 361.745828 1.223762e+07
310 0.737379 -5.338891 -4.232823 372.527696 1.519588e+07
320 0.737097 -5.338468 -4.232823 385.915515 1.223799e+07
330 0.736651 -5.337799 -4.232822 396.697768 1.519534e+07
340 0.736237 -5.337179 -4.232823 410.087978 1.223580e+07
350 0.735631 -5.336269 -4.232823 420.870170 1.519543e+07
360 0.735088 -5.335454 -4.232822 434.255351 1.224040e+07
370 0.734847 -5.335093 -4.232823 445.039156 1.519315e+07
380 0.734393 -5.334412 -4.232823 458.440646 1.222551e+07
390 0.733903 -5.333677 -4.232823 469.224726 1.519277e+07
400 0.733390 -5.332908 -4.232823 482.624962 1.222665e+07
410 0.732848 -5.332095 -4.232823 493.410843 1.519023e+07
420 0.732288 -5.331254 -4.232823 506.807717 1.222972e+07
430 0.731792 -5.330511 -4.232823 517.595493 1.518756e+07
440 0.731328 -5.329815 -4.232823 530.994495 1.222778e+07
450 0.730928 -5.329215 -4.232823 541.783280 1.518614e+07
460 0.730331 -5.328319 -4.232823 555.193019 1.221799e+07
470 0.729847 -5.327594 -4.232823 565.983375 1.518393e+07
480 0.729330 -5.326818 -4.232823 579.383094 1.222712e+07
490 0.728749 -5.325947 -4.232823 590.174977 1.518178e+07
500 0.728307 -5.325283 -4.232824 603.581562 1.222086e+07
510 0.727853 -5.324602 -4.232823 614.375585 1.517877e+07
520 0.727315 -5.323795 -4.232823 627.784092 1.221911e+07
530 0.726704 -5.322878 -4.232823 638.578454 1.517829e+07
540 0.726218 -5.322150 -4.232823 651.999215 1.220795e+07
550 0.725663 -5.321318 -4.232823 662.794922 1.517640e+07
560 0.725051 -5.320399 -4.232823 676.212561 1.221079e+07
570 0.724722 -5.319907 -4.232824 687.010243 1.517363e+07
580 0.724129 -5.319017 -4.232823 700.439805 1.219995e+07
590 0.723559 -5.318162 -4.232823 711.238316 1.517246e+07
600 0.723120 -5.317504 -4.232824 724.666853 1.220088e+07
610 0.722532 -5.316621 -4.232824 735.468966 1.516740e+07
620 0.721955 -5.315755 -4.232823 748.890831 1.220695e+07
630 0.721458 -5.315010 -4.232823 759.693756 1.516626e+07
640 0.721046 -5.314392 -4.232823 773.111446 1.221075e+07
650 0.720543 -5.313638 -4.232824 783.914290 1.516638e+07
660 0.719853 -5.312603 -4.232823 797.338464 1.220485e+07
670 0.719403 -5.311928 -4.232823 808.142573 1.516460e+07
680 0.718974 -5.311285 -4.232824 821.579238 1.219350e+07
690 0.718136 -5.310027 -4.232823 832.385948 1.516095e+07
700 0.717525 -5.309111 -4.232824 845.827449 1.218911e+07
710 0.717047 -5.308394 -4.232823 856.634643 1.516027e+07
720 0.716568 -5.307675 -4.232823 870.067669 1.219680e+07
730 0.716099 -5.306972 -4.232824 880.876128 1.515850e+07
740 0.715492 -5.306061 -4.232823 894.313417 1.219294e+07
750 0.714976 -5.305287 -4.232824 905.123274 1.515654e+07
760 0.714443 -5.304488 -4.232824 918.561967 1.219166e+07
770 0.713977 -5.303788 -4.232823 929.371616 1.515683e+07
780 0.713638 -5.303281 -4.232824 942.820879 1.218208e+07
790 0.713152 -5.302551 -4.232823 953.630649 1.515666e+07
800 0.712705 -5.301881 -4.232824 967.071083 1.219008e+07
810 0.712180 -5.301094 -4.232824 977.882018 1.515503e+07
820 0.711557 -5.300160 -4.232824 991.322885 1.218969e+07
830 0.710920 -5.299204 -4.232824 1002.134834 1.515360e+07
840 0.710322 -5.298307 -4.232823 1015.586639 1.217978e+07
850 0.709907 -5.297683 -4.232823 1026.399697 1.515205e+07
860 0.709583 -5.297198 -4.232824 1039.852399 1.217897e+07
870 0.709076 -5.296438 -4.232824 1050.665515 1.515197e+07
880 0.708523 -5.295608 -4.232823 1064.115955 1.218101e+07
890 0.707954 -5.294754 -4.232823 1074.930570 1.514987e+07
900 0.707500 -5.294073 -4.232823 1088.378960 1.218287e+07
910 0.707225 -5.293661 -4.232824 1099.195414 1.514729e+07
920 0.706554 -5.292654 -4.232823 1112.646432 1.218049e+07
930 0.706104 -5.291979 -4.232823 1123.463676 1.514619e+07
940 0.705622 -5.291255 -4.232823 1136.927354 1.216904e+07
950 0.705257 -5.290709 -4.232823 1147.746257 1.514386e+07
960 0.704860 -5.290114 -4.232823 1161.210734 1.216832e+07
970 0.704218 -5.289150 -4.232823 1172.029909 1.514348e+07
980 0.703663 -5.288318 -4.232823 1185.497144 1.216582e+07
990 0.703195 -5.287615 -4.232823 1196.316877 1.514270e+07
1000 0.702793 -5.287013 -4.232823 1209.781753 1.216795e+07

#Procs Particles | Time T_Force T_Neigh T_Comm T_Other | Steps/s Atomsteps/s Atomsteps/(proc*s)
1 16384000 | 1209.781760 852.534115 123.891317 18.571835 214.784206 | 0.826595 1.354294e+07 1.354294e+07 PERFORMANCE
1227448
start time: 18:16:20
