macro  KOKKOS_ENABLE_CUDA      : defined
macro  CUDA_VERSION          = 10000 = version 10.0
Kokkos::Cuda[ 0 ] TITAN Xp capability 6.1, Total Global Memory: 11.91 G, Shared Memory per Block: 48 K : Selected

#InputFile:
#=========================================================
# 3d Lennard-Jones melt 

units lj 
atom_style atomic 

newton off 
lattice fcc 0.8442 
region box block 0 160 0 160 0 160 
create_box 1 box 
create_atoms 1 box 
mass 1 2.0 

velocity all create 1.4 87287 loop geom 

pair_style lj/cut 2.5 
pair_coeff 1 1 1.0 1.0 2.5 

neighbor 0.3 bin 
neigh_modify delay 0 every 20 check no 
fix 1 all nve 
thermo 10 

run 1000 
#=========================================================

Using: ForceLJNeighFull Neighbor2D CommMPI BinningKKSort
Atoms: 16384000 16384000

#Timestep Temperature PotE ETot Time Atomsteps/s
0 1.400000 -6.332812 -4.232812 0.000000 0.000000e+00
10 1.267050 -6.133727 -4.233153 20.586443 7.958636e+06
20 0.772060 -5.390506 -4.232416 46.343102 6.361073e+06
30 0.620836 -5.163999 -4.232746 67.677230 7.679714e+06
40 0.717897 -5.309801 -4.232956 93.984100 6.228031e+06
50 0.714219 -5.304150 -4.232821 115.226598 7.712841e+06
60 0.708659 -5.295813 -4.232825 141.512962 6.232890e+06
70 0.717513 -5.309106 -4.232837 162.849965 7.678679e+06
80 0.726147 -5.322056 -4.232835 189.233374 6.209963e+06
90 0.730606 -5.328739 -4.232830 210.606578 7.665674e+06
100 0.733035 -5.332379 -4.232827 237.001769 6.207191e+06
110 0.734786 -5.335005 -4.232826 258.374906 7.665697e+06
120 0.736257 -5.337210 -4.232825 284.773491 6.206393e+06
130 0.737380 -5.338894 -4.232824 306.137807 7.668862e+06
140 0.738246 -5.340193 -4.232824 332.541100 6.205287e+06
150 0.739020 -5.341354 -4.232824 353.896087 7.672213e+06
160 0.739647 -5.342294 -4.232823 380.304288 6.204133e+06
170 0.740063 -5.342918 -4.232823 401.653306 7.674358e+06
180 0.740259 -5.343212 -4.232823 428.067965 6.202616e+06
190 0.740322 -5.343306 -4.232823 449.414335 7.675310e+06
200 0.740314 -5.343293 -4.232822 475.800468 6.209322e+06
210 0.740437 -5.343478 -4.232822 497.145270 7.675873e+06
220 0.740398 -5.343419 -4.232822 523.540994 6.207066e+06
230 0.740185 -5.343100 -4.232822 544.882700 7.676988e+06
240 0.739764 -5.342468 -4.232822 571.271976 6.208582e+06
250 0.739499 -5.342071 -4.232822 592.614356 7.676745e+06
260 0.739279 -5.341741 -4.232822 619.016774 6.205492e+06
270 0.738904 -5.341179 -4.232822 640.361071 7.676055e+06
280 0.738491 -5.340559 -4.232822 666.741204 6.210734e+06
290 0.738081 -5.339944 -4.232822 688.085878 7.675920e+06
300 0.737660 -5.339313 -4.232822 714.485593 6.206128e+06
310 0.737379 -5.338891 -4.232823 735.832816 7.675003e+06
320 0.737097 -5.338468 -4.232823 762.238195 6.204796e+06
330 0.736651 -5.337799 -4.232822 783.585212 7.675078e+06
340 0.736237 -5.337179 -4.232823 809.982682 6.206655e+06
350 0.735631 -5.336269 -4.232823 831.330364 7.674838e+06
360 0.735088 -5.335454 -4.232822 857.733704 6.205276e+06
370 0.734847 -5.335093 -4.232823 879.084777 7.673619e+06
380 0.734393 -5.334412 -4.232823 905.495366 6.203573e+06
390 0.733903 -5.333677 -4.232823 926.848287 7.672954e+06
400 0.733390 -5.332908 -4.232823 953.259288 6.203476e+06
410 0.732848 -5.332095 -4.232823 974.612292 7.672925e+06
420 0.732288 -5.331254 -4.232823 1001.035388 6.200636e+06
430 0.731792 -5.330511 -4.232823 1022.391309 7.671877e+06
440 0.731328 -5.329815 -4.232823 1048.820310 6.199251e+06
450 0.730928 -5.329215 -4.232823 1070.178098 7.671206e+06
460 0.730331 -5.328319 -4.232823 1096.606375 6.199421e+06
470 0.729847 -5.327594 -4.232823 1117.965984 7.670552e+06
480 0.729330 -5.326818 -4.232823 1144.411763 6.195318e+06
490 0.728749 -5.325947 -4.232823 1165.772044 7.670310e+06
500 0.728307 -5.325283 -4.232824 1192.201689 6.199100e+06
510 0.727853 -5.324602 -4.232823 1213.567561 7.668304e+06
520 0.727315 -5.323795 -4.232823 1239.997104 6.199124e+06
530 0.726704 -5.322878 -4.232823 1261.363608 7.668077e+06
540 0.726218 -5.322150 -4.232823 1287.803102 6.196790e+06
550 0.725663 -5.321318 -4.232823 1309.172984 7.666865e+06
560 0.725051 -5.320399 -4.232823 1335.607431 6.197973e+06
570 0.724722 -5.319907 -4.232824 1356.983214 7.664748e+06
580 0.724129 -5.319017 -4.232823 1383.445247 6.191512e+06
590 0.723559 -5.318162 -4.232823 1404.824356 7.663556e+06
600 0.723120 -5.317504 -4.232824 1431.278056 6.193462e+06
610 0.722532 -5.316621 -4.232824 1452.658983 7.662905e+06
620 0.721955 -5.315755 -4.232823 1479.114620 6.193009e+06
630 0.721458 -5.315010 -4.232823 1500.497983 7.662032e+06
640 0.721046 -5.314392 -4.232823 1526.965253 6.190287e+06
650 0.720543 -5.313638 -4.232824 1548.350787 7.661254e+06
660 0.719853 -5.312603 -4.232823 1574.820402 6.189739e+06
670 0.719403 -5.311928 -4.232823 1596.209888 7.659838e+06
680 0.718974 -5.311285 -4.232824 1622.691485 6.186938e+06
690 0.718136 -5.310027 -4.232823 1644.081865 7.659518e+06
700 0.717525 -5.309111 -4.232824 1670.567447 6.186007e+06
710 0.717047 -5.308394 -4.232823 1691.958892 7.659137e+06
720 0.716568 -5.307675 -4.232823 1718.430171 6.189350e+06
730 0.716099 -5.306972 -4.232824 1739.823234 7.658557e+06
740 0.715492 -5.306061 -4.232823 1766.299351 6.188219e+06
750 0.714976 -5.305287 -4.232824 1787.695431 7.657477e+06
760 0.714443 -5.304488 -4.232824 1814.204482 6.180530e+06
770 0.713977 -5.303788 -4.232823 1835.602351 7.656837e+06
780 0.713638 -5.303281 -4.232824 1862.093799 6.184637e+06
790 0.713152 -5.302551 -4.232823 1883.492476 7.656548e+06
800 0.712705 -5.301881 -4.232824 1909.983268 6.184791e+06
810 0.712180 -5.301094 -4.232824 1931.384017 7.655807e+06
820 0.711557 -5.300160 -4.232824 1957.881829 6.183152e+06
830 0.710920 -5.299204 -4.232824 1979.284461 7.655133e+06
840 0.710322 -5.298307 -4.232823 2005.785183 6.182473e+06
850 0.709907 -5.297683 -4.232823 2027.188316 7.654954e+06
860 0.709583 -5.297198 -4.232824 2053.691747 6.181841e+06
870 0.709076 -5.296438 -4.232824 2075.096310 7.654443e+06
880 0.708523 -5.295608 -4.232823 2101.597281 6.182415e+06
890 0.707954 -5.294754 -4.232823 2123.004067 7.653648e+06
900 0.707500 -5.294073 -4.232823 2149.528141 6.177030e+06
910 0.707225 -5.293661 -4.232824 2170.939201 7.652120e+06
920 0.706554 -5.292654 -4.232823 2197.453484 6.179311e+06
930 0.706104 -5.291979 -4.232823 2218.868206 7.650811e+06
940 0.705622 -5.291255 -4.232823 2245.395025 6.176391e+06
950 0.705257 -5.290709 -4.232823 2266.813412 7.649502e+06
960 0.704860 -5.290114 -4.232823 2293.333339 6.177996e+06
970 0.704218 -5.289150 -4.232823 2314.747948 7.650851e+06
980 0.703663 -5.288318 -4.232823 2341.293483 6.172036e+06
990 0.703195 -5.287615 -4.232823 2362.712952 7.649116e+06
1000 0.702793 -5.287013 -4.232823 2389.228280 6.179067e+06

#Procs Particles | Time T_Force T_Neigh T_Comm T_Other | Steps/s Atomsteps/s Atomsteps/(proc*s)
1 16384000 | 2389.228287 1688.968582 243.224056 35.069549 421.965681 | 0.418545 6.857444e+06 6.857444e+06 PERFORMANCE
2416675
start time: 20:59:59
