macro  KOKKOS_ENABLE_CUDA      : defined
macro  CUDA_VERSION          = 10000 = version 10.0
Kokkos::Cuda[ 0 ] TITAN Xp capability 6.1, Total Global Memory: 11.91 G, Shared Memory per Block: 48 K : Selected

#InputFile:
#=========================================================
# 3d Lennard-Jones melt 

units lj 
atom_style atomic 

newton off 
lattice fcc 0.8442 
region box block 0 160 0 160 0 160 
create_box 1 box 
create_atoms 1 box 
mass 1 2.0 

velocity all create 1.4 87287 loop geom 

pair_style lj/cut 2.5 
pair_coeff 1 1 1.0 1.0 2.5 

neighbor 0.3 bin 
neigh_modify delay 0 every 20 check no 
fix 1 all nve 
thermo 10 

run 1000 
#=========================================================

Using: ForceLJNeighFull Neighbor2D CommMPI BinningKKSort
Atoms: 16384000 16384000

#Timestep Temperature PotE ETot Time Atomsteps/s
0 1.400000 -6.332812 -4.232812 0.000000 0.000000e+00
10 1.267050 -6.133727 -4.233153 1.875827 8.734283e+07
20 0.772060 -5.390506 -4.232416 4.293042 6.778052e+07
30 0.620836 -5.163999 -4.232746 6.235773 8.433481e+07
40 0.717897 -5.309801 -4.232956 8.706432 6.631428e+07
50 0.714219 -5.304150 -4.232821 10.640980 8.469169e+07
60 0.708659 -5.295813 -4.232825 13.108895 6.638799e+07
70 0.717513 -5.309106 -4.232837 15.051762 8.432898e+07
80 0.726147 -5.322056 -4.232835 17.528519 6.615101e+07
90 0.730606 -5.328739 -4.232830 19.474755 8.418301e+07
100 0.733035 -5.332379 -4.232827 21.954745 6.606481e+07
110 0.734786 -5.335005 -4.232826 23.901460 8.416228e+07
120 0.736257 -5.337210 -4.232825 26.382865 6.602710e+07
130 0.737380 -5.338894 -4.232824 28.328289 8.421814e+07
140 0.738246 -5.340193 -4.232824 30.804101 6.617628e+07
150 0.739020 -5.341354 -4.232824 32.747760 8.429462e+07
160 0.739647 -5.342294 -4.232823 35.223628 6.617478e+07
170 0.740063 -5.342918 -4.232823 37.168011 8.426322e+07
180 0.740259 -5.343212 -4.232823 39.643381 6.618807e+07
190 0.740322 -5.343306 -4.232823 41.587145 8.429009e+07
200 0.740314 -5.343293 -4.232822 44.067736 6.604876e+07
210 0.740437 -5.343478 -4.232822 46.011293 8.429906e+07
220 0.740398 -5.343419 -4.232822 48.484135 6.625576e+07
230 0.740185 -5.343100 -4.232822 50.427910 8.428957e+07
240 0.739764 -5.342468 -4.232822 52.906144 6.611159e+07
250 0.739499 -5.342071 -4.232822 54.849216 8.432009e+07
260 0.739279 -5.341741 -4.232822 57.324006 6.620361e+07
270 0.738904 -5.341179 -4.232822 59.267494 8.430203e+07
280 0.738491 -5.340559 -4.232822 61.748624 6.603444e+07
290 0.738081 -5.339944 -4.232822 63.690744 8.436140e+07
300 0.737660 -5.339313 -4.232822 66.164666 6.622683e+07
310 0.737379 -5.338891 -4.232823 68.107980 8.430957e+07
320 0.737097 -5.338468 -4.232823 70.591031 6.598333e+07
330 0.736651 -5.337799 -4.232822 72.534238 8.431424e+07
340 0.736237 -5.337179 -4.232823 75.017302 6.598300e+07
350 0.735631 -5.336269 -4.232823 76.960256 8.432521e+07
360 0.735088 -5.335454 -4.232822 79.446532 6.589775e+07
370 0.734847 -5.335093 -4.232823 81.389993 8.430322e+07
380 0.734393 -5.334412 -4.232823 83.868640 6.610057e+07
390 0.733903 -5.333677 -4.232823 85.812842 8.427108e+07
400 0.733390 -5.332908 -4.232823 88.294615 6.601731e+07
410 0.732848 -5.332095 -4.232823 90.239168 8.425589e+07
420 0.732288 -5.331254 -4.232823 92.722305 6.598105e+07
430 0.731792 -5.330511 -4.232823 94.667030 8.424839e+07
440 0.731328 -5.329815 -4.232823 97.142448 6.618681e+07
450 0.730928 -5.329215 -4.232823 99.087353 8.424063e+07
460 0.730331 -5.328319 -4.232823 101.571962 6.594197e+07
470 0.729847 -5.327594 -4.232823 103.517347 8.421980e+07
480 0.729330 -5.326818 -4.232823 105.993565 6.616542e+07
490 0.728749 -5.325947 -4.232823 107.939254 8.420670e+07
500 0.728307 -5.325283 -4.232824 110.421655 6.600062e+07
510 0.727853 -5.324602 -4.232823 112.366068 8.426194e+07
520 0.727315 -5.323795 -4.232823 114.847198 6.603441e+07
530 0.726704 -5.322878 -4.232823 116.791521 8.426583e+07
540 0.726218 -5.322150 -4.232823 119.273568 6.601004e+07
550 0.725663 -5.321318 -4.232823 121.218825 8.422539e+07
560 0.725051 -5.320399 -4.232823 123.701263 6.599963e+07
570 0.724722 -5.319907 -4.232824 125.646896 8.420909e+07
580 0.724129 -5.319017 -4.232823 128.126598 6.607245e+07
590 0.723559 -5.318162 -4.232823 130.073623 8.414891e+07
600 0.723120 -5.317504 -4.232824 132.559690 6.590328e+07
610 0.722532 -5.316621 -4.232824 134.505918 8.418337e+07
620 0.721955 -5.315755 -4.232823 136.996127 6.579366e+07
630 0.721458 -5.315010 -4.232823 138.942421 8.418053e+07
640 0.721046 -5.314392 -4.232823 141.425777 6.597521e+07
650 0.720543 -5.313638 -4.232824 143.372068 8.418062e+07
660 0.719853 -5.312603 -4.232823 145.859616 6.586407e+07
670 0.719403 -5.311928 -4.232823 147.806336 8.416208e+07
680 0.718974 -5.311285 -4.232824 150.298175 6.575063e+07
690 0.718136 -5.310027 -4.232823 152.246625 8.408737e+07
700 0.717525 -5.309111 -4.232824 154.732521 6.590782e+07
710 0.717047 -5.308394 -4.232823 156.679911 8.413314e+07
720 0.716568 -5.307675 -4.232823 159.169266 6.581623e+07
730 0.716099 -5.306972 -4.232824 161.116751 8.412912e+07
740 0.715492 -5.306061 -4.232823 163.608037 6.576516e+07
750 0.714976 -5.305287 -4.232824 165.556537 8.408521e+07
760 0.714443 -5.304488 -4.232824 168.041694 6.592743e+07
770 0.713977 -5.303788 -4.232823 169.990182 8.408569e+07
780 0.713638 -5.303281 -4.232824 172.479561 6.581562e+07
790 0.713152 -5.302551 -4.232823 174.428292 8.407523e+07
800 0.712705 -5.301881 -4.232824 176.918722 6.578784e+07
810 0.712180 -5.301094 -4.232824 178.867948 8.405385e+07
820 0.711557 -5.300160 -4.232824 181.351429 6.597193e+07
830 0.710920 -5.299204 -4.232824 183.300881 8.404415e+07
840 0.710322 -5.298307 -4.232823 185.790983 6.579649e+07
850 0.709907 -5.297683 -4.232823 187.740089 8.405905e+07
860 0.709583 -5.297198 -4.232824 190.224863 6.593759e+07
870 0.709076 -5.296438 -4.232824 192.174574 8.403296e+07
880 0.708523 -5.295608 -4.232823 194.663416 6.582981e+07
890 0.707954 -5.294754 -4.232823 196.613215 8.402920e+07
900 0.707500 -5.294073 -4.232823 199.097700 6.594524e+07
910 0.707225 -5.293661 -4.232824 201.047793 8.401652e+07
920 0.706554 -5.292654 -4.232823 203.536520 6.583285e+07
930 0.706104 -5.291979 -4.232823 205.486856 8.400602e+07
940 0.705622 -5.291255 -4.232823 207.978601 6.575311e+07
950 0.705257 -5.290709 -4.232823 209.929241 8.399294e+07
960 0.704860 -5.290114 -4.232823 212.414443 6.592625e+07
970 0.704218 -5.289150 -4.232823 214.365750 8.396421e+07
980 0.703663 -5.288318 -4.232823 216.853986 6.584584e+07
990 0.703195 -5.287615 -4.232823 218.803276 8.405116e+07
1000 0.702793 -5.287013 -4.232823 221.293011 6.580619e+07

#Procs Particles | Time T_Force T_Neigh T_Comm T_Other | Steps/s Atomsteps/s Atomsteps/(proc*s)
1 16384000 | 221.293018 149.842250 23.468967 8.125605 39.855938 | 4.518895 7.403758e+07 7.403758e+07 PERFORMANCE
230258
start time: 04:35:46
