macro  KOKKOS_ENABLE_CUDA      : defined
macro  CUDA_VERSION          = 10000 = version 10.0
Kokkos::Cuda[ 0 ] TITAN Xp capability 6.1, Total Global Memory: 11.91 G, Shared Memory per Block: 48 K : Selected

#InputFile:
#=========================================================
# 3d Lennard-Jones melt 

units lj 
atom_style atomic 

newton off 
lattice fcc 0.8442 
region box block 0 160 0 160 0 160 
create_box 1 box 
create_atoms 1 box 
mass 1 2.0 

velocity all create 1.4 87287 loop geom 

pair_style lj/cut 2.5 
pair_coeff 1 1 1.0 1.0 2.5 

neighbor 0.3 bin 
neigh_modify delay 0 every 20 check no 
fix 1 all nve 
thermo 10 

run 1000 
#=========================================================

Using: ForceLJNeighFull Neighbor2D CommMPI BinningKKSort
Atoms: 16384000 16384000

#Timestep Temperature PotE ETot Time Atomsteps/s
0 1.400000 -6.332812 -4.232812 0.000000 0.000000e+00
10 1.267050 -6.133727 -4.233153 2.845063 5.758752e+07
20 0.772060 -5.390506 -4.232416 6.497880 4.485304e+07
30 0.620836 -5.163999 -4.232746 9.442770 5.563535e+07
40 0.717897 -5.309801 -4.232956 13.119424 4.456225e+07
50 0.714219 -5.304150 -4.232821 15.996553 5.694567e+07
60 0.708659 -5.295813 -4.232825 19.730983 4.387282e+07
70 0.717513 -5.309106 -4.232837 22.676130 5.563050e+07
80 0.726147 -5.322056 -4.232835 26.408056 4.390227e+07
90 0.730606 -5.328739 -4.232830 29.358361 5.553325e+07
100 0.733035 -5.332379 -4.232827 33.102625 4.375759e+07
110 0.734786 -5.335005 -4.232826 36.053262 5.552700e+07
120 0.736257 -5.337210 -4.232825 39.798238 4.374928e+07
130 0.737380 -5.338894 -4.232824 42.747215 5.555826e+07
140 0.738246 -5.340193 -4.232824 46.482992 4.385701e+07
150 0.739020 -5.341354 -4.232824 49.430737 5.558146e+07
160 0.739647 -5.342294 -4.232823 53.171156 4.380258e+07
170 0.740063 -5.342918 -4.232823 56.117654 5.560499e+07
180 0.740259 -5.343212 -4.232823 59.859124 4.379028e+07
190 0.740322 -5.343306 -4.232823 62.804819 5.562015e+07
200 0.740314 -5.343293 -4.232822 66.547990 4.377037e+07
210 0.740437 -5.343478 -4.232822 69.493302 5.562738e+07
220 0.740398 -5.343419 -4.232822 73.223934 4.391749e+07
230 0.740185 -5.343100 -4.232822 76.168935 5.563327e+07
240 0.739764 -5.342468 -4.232822 79.899774 4.391505e+07
250 0.739499 -5.342071 -4.232822 82.845066 5.562776e+07
260 0.739279 -5.341741 -4.232822 86.577248 4.389926e+07
270 0.738904 -5.341179 -4.232822 89.522290 5.563249e+07
280 0.738491 -5.340559 -4.232822 93.265356 4.377160e+07
290 0.738081 -5.339944 -4.232822 96.210535 5.562989e+07
300 0.737660 -5.339313 -4.232822 99.950839 4.380393e+07
310 0.737379 -5.338891 -4.232823 102.896283 5.562488e+07
320 0.737097 -5.338468 -4.232823 106.641669 4.374450e+07
330 0.736651 -5.337799 -4.232822 109.587235 5.562258e+07
340 0.736237 -5.337179 -4.232823 113.321433 4.387555e+07
350 0.735631 -5.336269 -4.232823 116.267057 5.562149e+07
360 0.735088 -5.335454 -4.232822 120.013285 4.373466e+07
370 0.734847 -5.335093 -4.232823 122.959462 5.561105e+07
380 0.734393 -5.334412 -4.232823 126.701125 4.378801e+07
390 0.733903 -5.333677 -4.232823 129.647914 5.559950e+07
400 0.733390 -5.332908 -4.232823 133.392073 4.375884e+07
410 0.732848 -5.332095 -4.232823 136.338970 5.559746e+07
420 0.732288 -5.331254 -4.232823 140.073950 4.386637e+07
430 0.731792 -5.330511 -4.232823 143.021342 5.558812e+07
440 0.731328 -5.329815 -4.232823 146.761270 4.380834e+07
450 0.730928 -5.329215 -4.232823 149.708800 5.558552e+07
460 0.730331 -5.328319 -4.232823 153.444609 4.385662e+07
470 0.729847 -5.327594 -4.232823 156.392472 5.557925e+07
480 0.729330 -5.326818 -4.232823 160.139993 4.371957e+07
490 0.728749 -5.325947 -4.232823 163.088313 5.557065e+07
500 0.728307 -5.325283 -4.232824 166.839839 4.367289e+07
510 0.727853 -5.324602 -4.232823 169.788374 5.556658e+07
520 0.727315 -5.323795 -4.232823 173.527616 4.381636e+07
530 0.726704 -5.322878 -4.232823 176.476528 5.555948e+07
540 0.726218 -5.322150 -4.232823 180.222486 4.373781e+07
550 0.725663 -5.321318 -4.232823 183.171907 5.554988e+07
560 0.725051 -5.320399 -4.232823 186.920763 4.370400e+07
570 0.724722 -5.319907 -4.232824 189.870562 5.554277e+07
580 0.724129 -5.319017 -4.232823 193.625821 4.362949e+07
590 0.723559 -5.318162 -4.232823 196.575711 5.554104e+07
600 0.723120 -5.317504 -4.232824 200.319531 4.376279e+07
610 0.722532 -5.316621 -4.232824 203.269824 5.553346e+07
620 0.721955 -5.315755 -4.232823 207.014652 4.375101e+07
630 0.721458 -5.315010 -4.232823 209.965308 5.552664e+07
640 0.721046 -5.314392 -4.232823 213.705322 4.380732e+07
650 0.720543 -5.313638 -4.232824 216.656148 5.552344e+07
660 0.719853 -5.312603 -4.232823 220.405120 4.370265e+07
670 0.719403 -5.311928 -4.232823 223.356256 5.551760e+07
680 0.718974 -5.311285 -4.232824 227.114098 4.359950e+07
690 0.718136 -5.310027 -4.232823 230.065655 5.550968e+07
700 0.717525 -5.309111 -4.232824 233.811204 4.374258e+07
710 0.717047 -5.308394 -4.232823 236.763169 5.550203e+07
720 0.716568 -5.307675 -4.232823 240.511769 4.370698e+07
730 0.716099 -5.306972 -4.232824 243.463849 5.549985e+07
740 0.715492 -5.306061 -4.232823 247.227221 4.353542e+07
750 0.714976 -5.305287 -4.232824 250.179772 5.549100e+07
760 0.714443 -5.304488 -4.232824 253.935468 4.362440e+07
770 0.713977 -5.303788 -4.232823 256.888006 5.549125e+07
780 0.713638 -5.303281 -4.232824 260.635615 4.371854e+07
790 0.713152 -5.302551 -4.232823 263.588793 5.547922e+07
800 0.712705 -5.301881 -4.232824 267.345038 4.361802e+07
810 0.712180 -5.301094 -4.232824 270.298233 5.547891e+07
820 0.711557 -5.300160 -4.232824 274.051039 4.365799e+07
830 0.710920 -5.299204 -4.232824 277.004444 5.547496e+07
840 0.710322 -5.298307 -4.232823 280.759867 4.362757e+07
850 0.709907 -5.297683 -4.232823 283.713565 5.546946e+07
860 0.709583 -5.297198 -4.232824 287.471384 4.359975e+07
870 0.709076 -5.296438 -4.232824 290.425632 5.545913e+07
880 0.708523 -5.295608 -4.232823 294.184970 4.358214e+07
890 0.707954 -5.294754 -4.232823 297.139205 5.545937e+07
900 0.707500 -5.294073 -4.232823 300.889908 4.368248e+07
910 0.707225 -5.293661 -4.232824 303.844499 5.545268e+07
920 0.706554 -5.292654 -4.232823 307.600117 4.362531e+07
930 0.706104 -5.291979 -4.232823 310.555183 5.544377e+07
940 0.705622 -5.291255 -4.232823 314.320670 4.351098e+07
950 0.705257 -5.290709 -4.232823 317.275969 5.543940e+07
960 0.704860 -5.290114 -4.232823 321.032139 4.361889e+07
970 0.704218 -5.289150 -4.232823 323.987624 5.543592e+07
980 0.703663 -5.288318 -4.232823 327.746505 4.358744e+07
990 0.703195 -5.287615 -4.232823 330.702179 5.543237e+07
1000 0.702793 -5.287013 -4.232823 334.460250 4.359683e+07

#Procs Particles | Time T_Force T_Neigh T_Comm T_Other | Steps/s Atomsteps/s Atomsteps/(proc*s)
1 16384000 | 334.460258 227.754485 35.105261 11.356388 60.243887 | 2.989892 4.898639e+07 4.898639e+07 PERFORMANCE
344405
start time: 05:40:57
