macro  KOKKOS_ENABLE_CUDA      : defined
macro  CUDA_VERSION          = 10000 = version 10.0
Kokkos::Cuda[ 0 ] TITAN Xp capability 6.1, Total Global Memory: 11.91 G, Shared Memory per Block: 48 K : Selected

#InputFile:
#=========================================================
# 3d Lennard-Jones melt 

units lj 
atom_style atomic 

newton off 
lattice fcc 0.8442 
region box block 0 160 0 160 0 160 
create_box 1 box 
create_atoms 1 box 
mass 1 2.0 

velocity all create 1.4 87287 loop geom 

pair_style lj/cut 2.5 
pair_coeff 1 1 1.0 1.0 2.5 

neighbor 0.3 bin 
neigh_modify delay 0 every 20 check no 
fix 1 all nve 
thermo 10 

run 1000 
#=========================================================

Using: ForceLJNeighFull Neighbor2D CommMPI BinningKKSort
Atoms: 16384000 16384000

#Timestep Temperature PotE ETot Time Atomsteps/s
0 1.400000 -6.332812 -4.232812 0.000000 0.000000e+00
10 1.267050 -6.133727 -4.233153 1.746924 9.378771e+07
20 0.772060 -5.390506 -4.232416 4.004452 7.257495e+07
30 0.620836 -5.163999 -4.232746 5.813143 9.058487e+07
40 0.717897 -5.309801 -4.232956 8.126414 7.082610e+07
50 0.714219 -5.304150 -4.232821 9.932294 9.072588e+07
60 0.708659 -5.295813 -4.232825 12.257637 7.045843e+07
70 0.717513 -5.309106 -4.232837 14.087990 8.951277e+07
80 0.726147 -5.322056 -4.232835 16.424711 7.011533e+07
90 0.730606 -5.328739 -4.232830 18.265812 8.899023e+07
100 0.733035 -5.332379 -4.232827 20.604431 7.005844e+07
110 0.734786 -5.335005 -4.232826 22.446091 8.896323e+07
120 0.736257 -5.337210 -4.232825 24.790606 6.988226e+07
130 0.737380 -5.338894 -4.232824 26.630022 8.907175e+07
140 0.738246 -5.340193 -4.232824 28.975327 6.985872e+07
150 0.739020 -5.341354 -4.232824 30.820618 8.878818e+07
160 0.739647 -5.342294 -4.232823 33.165851 6.986085e+07
170 0.740063 -5.342918 -4.232823 35.008246 8.892772e+07
180 0.740259 -5.343212 -4.232823 37.353719 6.985373e+07
190 0.740322 -5.343306 -4.232823 39.198136 8.883025e+07
200 0.740314 -5.343293 -4.232822 41.549323 6.968395e+07
210 0.740437 -5.343478 -4.232822 43.395589 8.874127e+07
220 0.740398 -5.343419 -4.232822 45.738889 6.991849e+07
230 0.740185 -5.343100 -4.232822 47.581731 8.890613e+07
240 0.739764 -5.342468 -4.232822 49.930128 6.976676e+07
250 0.739499 -5.342071 -4.232822 51.771354 8.898417e+07
260 0.739279 -5.341741 -4.232822 54.116493 6.986366e+07
270 0.738904 -5.341179 -4.232822 55.959572 8.889472e+07
280 0.738491 -5.340559 -4.232822 58.305018 6.985454e+07
290 0.738081 -5.339944 -4.232822 60.142192 8.918044e+07
300 0.737660 -5.339313 -4.232822 62.492496 6.971017e+07
310 0.737379 -5.338891 -4.232823 64.337204 8.881615e+07
320 0.737097 -5.338468 -4.232823 66.686380 6.974361e+07
330 0.736651 -5.337799 -4.232822 68.531491 8.879684e+07
340 0.736237 -5.337179 -4.232823 70.871716 7.001034e+07
350 0.735631 -5.336269 -4.232823 72.717869 8.874673e+07
360 0.735088 -5.335454 -4.232822 75.065492 6.978973e+07
370 0.734847 -5.335093 -4.232823 76.910038 8.882406e+07
380 0.734393 -5.334412 -4.232823 79.260525 6.970470e+07
390 0.733903 -5.333677 -4.232823 81.107852 8.869028e+07
400 0.733390 -5.332908 -4.232823 83.454899 6.980688e+07
410 0.732848 -5.332095 -4.232823 85.296819 8.895067e+07
420 0.732288 -5.331254 -4.232823 87.645825 6.974863e+07
430 0.731792 -5.330511 -4.232823 89.494040 8.864770e+07
440 0.731328 -5.329815 -4.232823 91.842036 6.977865e+07
450 0.730928 -5.329215 -4.232823 93.687300 8.878945e+07
460 0.730331 -5.328319 -4.232823 96.040462 6.962549e+07
470 0.729847 -5.327594 -4.232823 97.888918 8.863611e+07
480 0.729330 -5.326818 -4.232823 100.236865 6.978011e+07
490 0.728749 -5.325947 -4.232823 102.085910 8.860792e+07
500 0.728307 -5.325283 -4.232824 104.438421 6.964472e+07
510 0.727853 -5.324602 -4.232823 106.286532 8.865270e+07
520 0.727315 -5.323795 -4.232823 108.634512 6.977912e+07
530 0.726704 -5.322878 -4.232823 110.478528 8.884956e+07
540 0.726218 -5.322150 -4.232823 112.833036 6.958566e+07
550 0.725663 -5.321318 -4.232823 114.679706 8.872188e+07
560 0.725051 -5.320399 -4.232823 117.037179 6.949814e+07
570 0.724722 -5.319907 -4.232824 118.885402 8.864729e+07
580 0.724129 -5.319017 -4.232823 121.236461 6.968776e+07
590 0.723559 -5.318162 -4.232823 123.083889 8.868545e+07
600 0.723120 -5.317504 -4.232824 125.439991 6.953857e+07
610 0.722532 -5.316621 -4.232824 127.295600 8.829448e+07
620 0.721955 -5.315755 -4.232823 129.647134 6.967367e+07
630 0.721458 -5.315010 -4.232823 131.500417 8.840526e+07
640 0.721046 -5.314392 -4.232823 133.866857 6.923481e+07
650 0.720543 -5.313638 -4.232824 135.714853 8.865820e+07
660 0.719853 -5.312603 -4.232823 138.075847 6.939452e+07
670 0.719403 -5.311928 -4.232823 139.925772 8.856574e+07
680 0.718974 -5.311285 -4.232824 142.289666 6.930935e+07
690 0.718136 -5.310027 -4.232823 144.142601 8.842188e+07
700 0.717525 -5.309111 -4.232824 146.510172 6.920173e+07
710 0.717047 -5.308394 -4.232823 148.367278 8.822328e+07
720 0.716568 -5.307675 -4.232823 150.722880 6.955337e+07
730 0.716099 -5.306972 -4.232824 152.576287 8.839937e+07
740 0.715492 -5.306061 -4.232823 154.934877 6.946522e+07
750 0.714976 -5.305287 -4.232824 156.786529 8.848314e+07
760 0.714443 -5.304488 -4.232824 159.145420 6.945637e+07
770 0.713977 -5.303788 -4.232823 160.997276 8.847339e+07
780 0.713638 -5.303281 -4.232824 163.356715 6.944025e+07
790 0.713152 -5.302551 -4.232823 165.210953 8.835971e+07
800 0.712705 -5.301881 -4.232824 167.567181 6.953487e+07
810 0.712180 -5.301094 -4.232824 169.421913 8.833622e+07
820 0.711557 -5.300160 -4.232824 171.788374 6.923419e+07
830 0.710920 -5.299204 -4.232824 173.643075 8.833772e+07
840 0.710322 -5.298307 -4.232823 176.004906 6.936988e+07
850 0.709907 -5.297683 -4.232823 177.855577 8.853007e+07
860 0.709583 -5.297198 -4.232824 180.216401 6.939951e+07
870 0.709076 -5.296438 -4.232824 182.074305 8.818539e+07
880 0.708523 -5.295608 -4.232823 184.434803 6.940907e+07
890 0.707954 -5.294754 -4.232823 186.292879 8.817722e+07
900 0.707500 -5.294073 -4.232823 188.660366 6.920419e+07
910 0.707225 -5.293661 -4.232824 190.521036 8.805431e+07
920 0.706554 -5.292654 -4.232823 192.884330 6.932697e+07
930 0.706104 -5.291979 -4.232823 194.744624 8.807212e+07
940 0.705622 -5.291255 -4.232823 197.112704 6.918685e+07
950 0.705257 -5.290709 -4.232823 198.969065 8.825866e+07
960 0.704860 -5.290114 -4.232823 201.339278 6.912459e+07
970 0.704218 -5.289150 -4.232823 203.195239 8.827772e+07
980 0.703663 -5.288318 -4.232823 205.561908 6.922810e+07
990 0.703195 -5.287615 -4.232823 207.419765 8.818763e+07
1000 0.702793 -5.287013 -4.232823 209.787740 6.918992e+07

#Procs Particles | Time T_Force T_Neigh T_Comm T_Other | Steps/s Atomsteps/s Atomsteps/(proc*s)
1 16384000 | 209.787747 139.030871 22.044741 8.130991 40.580892 | 4.766723 7.809798e+07 7.809798e+07 PERFORMANCE
218646
start time: 04:24:26
