macro  KOKKOS_ENABLE_CUDA      : defined
macro  CUDA_VERSION          = 10000 = version 10.0
Kokkos::Cuda[ 0 ] TITAN Xp capability 6.1, Total Global Memory: 11.91 G, Shared Memory per Block: 48 K : Selected

#InputFile:
#=========================================================
# 3d Lennard-Jones melt 

units lj 
atom_style atomic 

newton off 
lattice fcc 0.8442 
region box block 0 160 0 160 0 160 
create_box 1 box 
create_atoms 1 box 
mass 1 2.0 

velocity all create 1.4 87287 loop geom 

pair_style lj/cut 2.5 
pair_coeff 1 1 1.0 1.0 2.5 

neighbor 0.3 bin 
neigh_modify delay 0 every 20 check no 
fix 1 all nve 
thermo 10 

run 1000 
#=========================================================

Using: ForceLJNeighFull Neighbor2D CommMPI BinningKKSort
Atoms: 16384000 16384000

#Timestep Temperature PotE ETot Time Atomsteps/s
0 1.400000 -6.332812 -4.232812 0.000000 0.000000e+00
10 1.267050 -6.133727 -4.233153 10.408798 1.574053e+07
20 0.772060 -5.390506 -4.232416 23.487540 1.252720e+07
30 0.620836 -5.163999 -4.232746 34.271889 1.519239e+07
40 0.717897 -5.309801 -4.232956 47.628286 1.226678e+07
50 0.714219 -5.304150 -4.232821 58.364272 1.526082e+07
60 0.708659 -5.295813 -4.232825 71.700853 1.228501e+07
70 0.717513 -5.309106 -4.232837 82.483457 1.519484e+07
80 0.726147 -5.322056 -4.232835 95.873772 1.223571e+07
90 0.730606 -5.328739 -4.232830 106.674788 1.516894e+07
100 0.733035 -5.332379 -4.232827 120.071803 1.222959e+07
110 0.734786 -5.335005 -4.232826 130.874077 1.516718e+07
120 0.736257 -5.337210 -4.232825 144.271667 1.222907e+07
130 0.737380 -5.338894 -4.232824 155.067807 1.517579e+07
140 0.738246 -5.340193 -4.232824 168.476664 1.221879e+07
150 0.739020 -5.341354 -4.232824 179.268201 1.518227e+07
160 0.739647 -5.342294 -4.232823 192.669839 1.222537e+07
170 0.740063 -5.342918 -4.232823 203.456589 1.518901e+07
180 0.740259 -5.343212 -4.232823 216.850810 1.223214e+07
190 0.740322 -5.343306 -4.232823 227.634651 1.519310e+07
200 0.740314 -5.343293 -4.232822 241.031580 1.222967e+07
210 0.740437 -5.343478 -4.232822 251.814048 1.519504e+07
220 0.740398 -5.343419 -4.232822 265.210502 1.223010e+07
230 0.740185 -5.343100 -4.232822 275.992208 1.519611e+07
240 0.739764 -5.342468 -4.232822 289.388991 1.222980e+07
250 0.739499 -5.342071 -4.232822 300.170212 1.519680e+07
260 0.739279 -5.341741 -4.232822 313.571136 1.222602e+07
270 0.738904 -5.341179 -4.232822 324.353591 1.519505e+07
280 0.738491 -5.340559 -4.232822 337.745690 1.223408e+07
290 0.738081 -5.339944 -4.232822 348.527801 1.519554e+07
300 0.737660 -5.339313 -4.232822 361.931797 1.222322e+07
310 0.737379 -5.338891 -4.232823 372.715625 1.519312e+07
320 0.737097 -5.338468 -4.232823 386.107790 1.223402e+07
330 0.736651 -5.337799 -4.232822 396.891327 1.519353e+07
340 0.736237 -5.337179 -4.232823 410.286384 1.223138e+07
350 0.735631 -5.336269 -4.232823 421.069535 1.519408e+07
360 0.735088 -5.335454 -4.232822 434.472716 1.222396e+07
370 0.734847 -5.335093 -4.232823 445.259949 1.518833e+07
380 0.734393 -5.334412 -4.232823 458.665519 1.222179e+07
390 0.733903 -5.333677 -4.232823 469.453656 1.518705e+07
400 0.733390 -5.332908 -4.232823 482.868407 1.221342e+07
410 0.732848 -5.332095 -4.232823 493.656698 1.518684e+07
420 0.732288 -5.331254 -4.232823 507.071196 1.221365e+07
430 0.731792 -5.330511 -4.232823 517.861834 1.518353e+07
440 0.731328 -5.329815 -4.232823 531.271531 1.221802e+07
450 0.730928 -5.329215 -4.232823 542.063083 1.518225e+07
460 0.730331 -5.328319 -4.232823 555.469621 1.222090e+07
470 0.729847 -5.327594 -4.232823 566.261745 1.518144e+07
480 0.729330 -5.326818 -4.232823 579.675069 1.221472e+07
490 0.728749 -5.325947 -4.232823 590.467820 1.518056e+07
500 0.728307 -5.325283 -4.232824 603.893174 1.220377e+07
510 0.727853 -5.324602 -4.232823 614.687828 1.517788e+07
520 0.727315 -5.323795 -4.232823 628.097116 1.221840e+07
530 0.726704 -5.322878 -4.232823 638.893041 1.517610e+07
540 0.726218 -5.322150 -4.232823 652.315762 1.220617e+07
550 0.725663 -5.321318 -4.232823 663.113944 1.517292e+07
560 0.725051 -5.320399 -4.232823 676.537060 1.220581e+07
570 0.724722 -5.319907 -4.232824 687.336656 1.517094e+07
580 0.724129 -5.319017 -4.232823 700.764434 1.220157e+07
590 0.723559 -5.318162 -4.232823 711.565677 1.516862e+07
600 0.723120 -5.317504 -4.232824 724.997429 1.219796e+07
610 0.722532 -5.316621 -4.232824 735.798634 1.516868e+07
620 0.721955 -5.315755 -4.232823 749.219291 1.220805e+07
630 0.721458 -5.315010 -4.232823 760.022074 1.516646e+07
640 0.721046 -5.314392 -4.232823 773.461999 1.219054e+07
650 0.720543 -5.313638 -4.232824 784.265819 1.516501e+07
660 0.719853 -5.312603 -4.232823 797.699480 1.219623e+07
670 0.719403 -5.311928 -4.232823 808.504710 1.516303e+07
680 0.718974 -5.311285 -4.232824 821.938557 1.219606e+07
690 0.718136 -5.310027 -4.232823 832.745324 1.516087e+07
700 0.717525 -5.309111 -4.232824 846.183016 1.219257e+07
710 0.717047 -5.308394 -4.232823 856.991035 1.515911e+07
720 0.716568 -5.307675 -4.232823 870.439340 1.218295e+07
730 0.716099 -5.306972 -4.232824 881.249287 1.515641e+07
740 0.715492 -5.306061 -4.232823 894.684614 1.219472e+07
750 0.714976 -5.305287 -4.232824 905.496159 1.515417e+07
760 0.714443 -5.304488 -4.232824 918.939239 1.218768e+07
770 0.713977 -5.303788 -4.232823 929.750325 1.515481e+07
780 0.713638 -5.303281 -4.232824 943.199904 1.218179e+07
790 0.713152 -5.302551 -4.232823 954.011473 1.515414e+07
800 0.712705 -5.301881 -4.232824 967.464932 1.217828e+07
810 0.712180 -5.301094 -4.232824 978.279158 1.515041e+07
820 0.711557 -5.300160 -4.232824 991.741048 1.217065e+07
830 0.710920 -5.299204 -4.232824 1002.556421 1.514881e+07
840 0.710322 -5.298307 -4.232823 1016.002341 1.218511e+07
850 0.709907 -5.297683 -4.232823 1026.819202 1.514672e+07
860 0.709583 -5.297198 -4.232824 1040.265545 1.218473e+07
870 0.709076 -5.296438 -4.232824 1051.083538 1.514514e+07
880 0.708523 -5.295608 -4.232823 1064.542028 1.217373e+07
890 0.707954 -5.294754 -4.232823 1075.359802 1.514545e+07
900 0.707500 -5.294073 -4.232823 1088.822251 1.217015e+07
910 0.707225 -5.293661 -4.232824 1099.642208 1.514239e+07
920 0.706554 -5.292654 -4.232823 1113.104541 1.217025e+07
930 0.706104 -5.291979 -4.232823 1123.925973 1.514033e+07
940 0.705622 -5.291255 -4.232823 1137.382942 1.217510e+07
950 0.705257 -5.290709 -4.232823 1148.205056 1.513937e+07
960 0.704860 -5.290114 -4.232823 1161.666951 1.217065e+07
970 0.704218 -5.289150 -4.232823 1172.488323 1.514041e+07
980 0.703663 -5.288318 -4.232823 1185.946175 1.217431e+07
990 0.703195 -5.287615 -4.232823 1196.769878 1.513715e+07
1000 0.702793 -5.287013 -4.232823 1210.228726 1.217340e+07

#Procs Particles | Time T_Force T_Neigh T_Comm T_Other | Steps/s Atomsteps/s Atomsteps/(proc*s)
1 16384000 | 1210.228734 852.764477 123.789833 18.599880 215.074272 | 0.826290 1.353794e+07 1.353794e+07 PERFORMANCE
1227920
start time: 03:16:45
