macro  KOKKOS_ENABLE_CUDA      : defined
macro  CUDA_VERSION          = 10000 = version 10.0
Kokkos::Cuda[ 0 ] TITAN Xp capability 6.1, Total Global Memory: 11.91 G, Shared Memory per Block: 48 K : Selected

#InputFile:
#=========================================================
# 3d Lennard-Jones melt 

units lj 
atom_style atomic 

newton off 
lattice fcc 0.8442 
region box block 0 160 0 160 0 160 
create_box 1 box 
create_atoms 1 box 
mass 1 2.0 

velocity all create 1.4 87287 loop geom 

pair_style lj/cut 2.5 
pair_coeff 1 1 1.0 1.0 2.5 

neighbor 0.3 bin 
neigh_modify delay 0 every 20 check no 
fix 1 all nve 
thermo 10 

run 1000 
#=========================================================

Using: ForceLJNeighFull Neighbor2D CommMPI BinningKKSort
Atoms: 16384000 16384000

#Timestep Temperature PotE ETot Time Atomsteps/s
0 1.400000 -6.332812 -4.232812 0.000000 0.000000e+00
10 1.267050 -6.133727 -4.233153 1.636211 1.001338e+08
20 0.772060 -5.390506 -4.232416 3.798739 7.576320e+07
30 0.620836 -5.163999 -4.232746 5.526891 9.480648e+07
40 0.717897 -5.309801 -4.232956 7.747144 7.379338e+07
50 0.714219 -5.304150 -4.232821 9.485923 9.422707e+07
60 0.708659 -5.295813 -4.232825 11.705564 7.381373e+07
70 0.717513 -5.309106 -4.232837 13.458458 9.346828e+07
80 0.726147 -5.322056 -4.232835 15.687527 7.350154e+07
90 0.730606 -5.328739 -4.232830 17.445133 9.321769e+07
100 0.733035 -5.332379 -4.232827 19.679933 7.331306e+07
110 0.734786 -5.335005 -4.232826 21.438238 9.318062e+07
120 0.736257 -5.337210 -4.232825 23.670036 7.341165e+07
130 0.737380 -5.338894 -4.232824 25.429473 9.312072e+07
140 0.738246 -5.340193 -4.232824 27.658600 7.349963e+07
150 0.739020 -5.341354 -4.232824 29.416383 9.320832e+07
160 0.739647 -5.342294 -4.232823 31.644648 7.352806e+07
170 0.740063 -5.342918 -4.232823 33.402330 9.321366e+07
180 0.740259 -5.343212 -4.232823 35.637262 7.330873e+07
190 0.740322 -5.343306 -4.232823 37.396426 9.313511e+07
200 0.740314 -5.343293 -4.232822 39.630287 7.334388e+07
210 0.740437 -5.343478 -4.232822 41.388369 9.319248e+07
220 0.740398 -5.343419 -4.232822 43.623454 7.330369e+07
230 0.740185 -5.343100 -4.232822 45.382623 9.313488e+07
240 0.739764 -5.342468 -4.232822 47.611447 7.350964e+07
250 0.739499 -5.342071 -4.232822 49.367708 9.328909e+07
260 0.739279 -5.341741 -4.232822 51.598870 7.343257e+07
270 0.738904 -5.341179 -4.232822 53.358551 9.310782e+07
280 0.738491 -5.340559 -4.232822 55.590885 7.339402e+07
290 0.738081 -5.339944 -4.232822 57.348904 9.319584e+07
300 0.737660 -5.339313 -4.232822 59.582098 7.336577e+07
310 0.737379 -5.338891 -4.232823 61.339480 9.322954e+07
320 0.737097 -5.338468 -4.232823 63.569891 7.345734e+07
330 0.736651 -5.337799 -4.232822 65.326598 9.326537e+07
340 0.736237 -5.337179 -4.232823 67.559513 7.337495e+07
350 0.735631 -5.336269 -4.232823 69.318518 9.314359e+07
360 0.735088 -5.335454 -4.232822 71.549728 7.343100e+07
370 0.734847 -5.335093 -4.232823 73.311019 9.302269e+07
380 0.734393 -5.334412 -4.232823 75.546910 7.327725e+07
390 0.733903 -5.333677 -4.232823 77.306166 9.313031e+07
400 0.733390 -5.332908 -4.232823 79.545048 7.317939e+07
410 0.732848 -5.332095 -4.232823 81.304504 9.311966e+07
420 0.732288 -5.331254 -4.232823 83.536903 7.339189e+07
430 0.731792 -5.330511 -4.232823 85.297181 9.307623e+07
440 0.731328 -5.329815 -4.232823 87.532633 7.329166e+07
450 0.730928 -5.329215 -4.232823 89.294156 9.301044e+07
460 0.730331 -5.328319 -4.232823 91.537355 7.303853e+07
470 0.729847 -5.327594 -4.232823 93.297187 9.309984e+07
480 0.729330 -5.326818 -4.232823 95.537560 7.313066e+07
490 0.728749 -5.325947 -4.232823 97.298548 9.303868e+07
500 0.728307 -5.325283 -4.232824 99.533743 7.330009e+07
510 0.727853 -5.324602 -4.232823 101.296397 9.295073e+07
520 0.727315 -5.323795 -4.232823 103.533968 7.322227e+07
530 0.726704 -5.322878 -4.232823 105.294954 9.303879e+07
540 0.726218 -5.322150 -4.232823 107.530110 7.330136e+07
550 0.725663 -5.321318 -4.232823 109.292193 9.298086e+07
560 0.725051 -5.320399 -4.232823 111.533653 7.309523e+07
570 0.724722 -5.319907 -4.232824 113.294544 9.304382e+07
580 0.724129 -5.319017 -4.232823 115.529119 7.332041e+07
590 0.723559 -5.318162 -4.232823 117.290486 9.301868e+07
600 0.723120 -5.317504 -4.232824 119.538773 7.287327e+07
610 0.722532 -5.316621 -4.232824 121.301638 9.293958e+07
620 0.721955 -5.315755 -4.232823 123.544645 7.304481e+07
630 0.721458 -5.315010 -4.232823 125.309360 9.284219e+07
640 0.721046 -5.314392 -4.232823 127.553321 7.301376e+07
650 0.720543 -5.313638 -4.232824 129.318139 9.283673e+07
660 0.719853 -5.312603 -4.232823 131.558807 7.312106e+07
670 0.719403 -5.311928 -4.232823 133.321652 9.294067e+07
680 0.718974 -5.311285 -4.232824 135.559811 7.320304e+07
690 0.718136 -5.310027 -4.232823 137.324840 9.282567e+07
700 0.717525 -5.309111 -4.232824 139.570254 7.296649e+07
710 0.717047 -5.308394 -4.232823 141.333750 9.290636e+07
720 0.716568 -5.307675 -4.232823 143.572236 7.319232e+07
730 0.716099 -5.306972 -4.232824 145.335966 9.289404e+07
740 0.715492 -5.306061 -4.232823 147.582329 7.293569e+07
750 0.714976 -5.305287 -4.232824 149.347425 9.282213e+07
760 0.714443 -5.304488 -4.232824 151.592749 7.296944e+07
770 0.713977 -5.303788 -4.232823 153.357056 9.286364e+07
780 0.713638 -5.303281 -4.232824 155.600420 7.303316e+07
790 0.713152 -5.302551 -4.232823 157.365277 9.283475e+07
800 0.712705 -5.301881 -4.232824 159.609412 7.300808e+07
810 0.712180 -5.301094 -4.232824 161.372603 9.292246e+07
820 0.711557 -5.300160 -4.232824 163.619623 7.291432e+07
830 0.710920 -5.299204 -4.232824 165.384417 9.283805e+07
840 0.710322 -5.298307 -4.232823 167.626823 7.306438e+07
850 0.709907 -5.297683 -4.232823 169.390922 9.287462e+07
860 0.709583 -5.297198 -4.232824 171.639324 7.286951e+07
870 0.709076 -5.296438 -4.232824 173.404968 9.279336e+07
880 0.708523 -5.295608 -4.232823 175.652608 7.289422e+07
890 0.707954 -5.294754 -4.232823 177.418862 9.276129e+07
900 0.707500 -5.294073 -4.232823 179.665217 7.293593e+07
910 0.707225 -5.293661 -4.232824 181.437505 9.244549e+07
920 0.706554 -5.292654 -4.232823 183.692978 7.264109e+07
930 0.706104 -5.291979 -4.232823 185.465545 9.243093e+07
940 0.705622 -5.291255 -4.232823 187.721019 7.264104e+07
950 0.705257 -5.290709 -4.232823 189.493287 9.244651e+07
960 0.704860 -5.290114 -4.232823 191.750640 7.258058e+07
970 0.704218 -5.289150 -4.232823 193.523779 9.240110e+07
980 0.703663 -5.288318 -4.232823 195.774705 7.278782e+07
990 0.703195 -5.287615 -4.232823 197.545784 9.250860e+07
1000 0.702793 -5.287013 -4.232823 199.796336 7.279992e+07

#Procs Particles | Time T_Force T_Neigh T_Comm T_Other | Steps/s Atomsteps/s Atomsteps/(proc*s)
1 16384000 | 199.796343 129.765498 20.751105 8.129521 41.149967 | 5.005097 8.200350e+07 8.200350e+07 PERFORMANCE
208398
start time: 04:13:34
