macro  KOKKOS_ENABLE_CUDA      : defined
macro  CUDA_VERSION          = 10000 = version 10.0
Kokkos::Cuda[ 0 ] TITAN Xp capability 6.1, Total Global Memory: 11.91 G, Shared Memory per Block: 48 K : Selected

#InputFile:
#=========================================================
# 3d Lennard-Jones melt 

units lj 
atom_style atomic 

newton off 
lattice fcc 0.8442 
region box block 0 160 0 160 0 160 
create_box 1 box 
create_atoms 1 box 
mass 1 2.0 

velocity all create 1.4 87287 loop geom 

pair_style lj/cut 2.5 
pair_coeff 1 1 1.0 1.0 2.5 

neighbor 0.3 bin 
neigh_modify delay 0 every 20 check no 
fix 1 all nve 
thermo 10 

run 1000 
#=========================================================

Using: ForceLJNeighFull Neighbor2D CommMPI BinningKKSort
Atoms: 16384000 16384000

#Timestep Temperature PotE ETot Time Atomsteps/s
0 1.400000 -6.332812 -4.232812 0.000000 0.000000e+00
10 1.267050 -6.133727 -4.233153 1.671267 9.803351e+07
20 0.772060 -5.390506 -4.232416 3.856339 7.498145e+07
30 0.620836 -5.163999 -4.232746 5.602686 9.381869e+07
40 0.717897 -5.309801 -4.232956 7.858308 7.263629e+07
50 0.714219 -5.304150 -4.232821 9.626614 9.265365e+07
60 0.708659 -5.295813 -4.232825 11.888444 7.243691e+07
70 0.717513 -5.309106 -4.232837 13.670460 9.194085e+07
80 0.726147 -5.322056 -4.232835 15.938813 7.222859e+07
90 0.730606 -5.328739 -4.232830 17.724422 9.175583e+07
100 0.733035 -5.332379 -4.232827 19.999585 7.201243e+07
110 0.734786 -5.335005 -4.232826 21.790043 9.150727e+07
120 0.736257 -5.337210 -4.232825 24.063939 7.205255e+07
130 0.737380 -5.338894 -4.232824 25.854636 9.149513e+07
140 0.738246 -5.340193 -4.232824 28.131382 7.196234e+07
150 0.739020 -5.341354 -4.232824 29.921446 9.152745e+07
160 0.739647 -5.342294 -4.232823 32.200181 7.189955e+07
170 0.740063 -5.342918 -4.232823 33.991528 9.146189e+07
180 0.740259 -5.343212 -4.232823 36.266041 7.203300e+07
190 0.740322 -5.343306 -4.232823 38.054531 9.160802e+07
200 0.740314 -5.343293 -4.232822 40.329128 7.203035e+07
210 0.740437 -5.343478 -4.232822 42.116970 9.164117e+07
220 0.740398 -5.343419 -4.232822 44.390771 7.205557e+07
230 0.740185 -5.343100 -4.232822 46.182279 9.145370e+07
240 0.739764 -5.342468 -4.232822 48.457791 7.200136e+07
250 0.739499 -5.342071 -4.232822 50.248546 9.149213e+07
260 0.739279 -5.341741 -4.232822 52.526748 7.191639e+07
270 0.738904 -5.341179 -4.232822 54.319199 9.140555e+07
280 0.738491 -5.340559 -4.232822 56.602889 7.174355e+07
290 0.738081 -5.339944 -4.232822 58.392960 9.152710e+07
300 0.737660 -5.339313 -4.232822 60.668541 7.199920e+07
310 0.737379 -5.338891 -4.232823 62.460075 9.145234e+07
320 0.737097 -5.338468 -4.232823 64.744687 7.171460e+07
330 0.736651 -5.337799 -4.232822 66.534246 9.155328e+07
340 0.736237 -5.337179 -4.232823 68.811242 7.195444e+07
350 0.735631 -5.336269 -4.232823 70.603934 9.139327e+07
360 0.735088 -5.335454 -4.232822 72.886757 7.177078e+07
370 0.734847 -5.335093 -4.232823 74.678364 9.144864e+07
380 0.734393 -5.334412 -4.232823 76.958813 7.184550e+07
390 0.733903 -5.333677 -4.232823 78.749837 9.147843e+07
400 0.733390 -5.332908 -4.232823 81.023656 7.205496e+07
410 0.732848 -5.332095 -4.232823 82.813522 9.153758e+07
420 0.732288 -5.331254 -4.232823 85.090009 7.197054e+07
430 0.731792 -5.330511 -4.232823 86.884091 9.132248e+07
440 0.731328 -5.329815 -4.232823 89.165069 7.182883e+07
450 0.730928 -5.329215 -4.232823 90.959204 9.131977e+07
460 0.730331 -5.328319 -4.232823 93.237829 7.190304e+07
470 0.729847 -5.327594 -4.232823 95.029466 9.144706e+07
480 0.729330 -5.326818 -4.232823 97.309131 7.187021e+07
490 0.728749 -5.325947 -4.232823 99.102779 9.134459e+07
500 0.728307 -5.325283 -4.232824 101.377629 7.202233e+07
510 0.727853 -5.324602 -4.232823 103.171765 9.131974e+07
520 0.727315 -5.323795 -4.232823 105.456553 7.170903e+07
530 0.726704 -5.322878 -4.232823 107.250586 9.132499e+07
540 0.726218 -5.322150 -4.232823 109.529824 7.188367e+07
550 0.725663 -5.321318 -4.232823 111.324133 9.131092e+07
560 0.725051 -5.320399 -4.232823 113.613854 7.155457e+07
570 0.724722 -5.319907 -4.232824 115.410398 9.119732e+07
580 0.724129 -5.319017 -4.232823 117.684923 7.203263e+07
590 0.723559 -5.318162 -4.232823 119.480258 9.125872e+07
600 0.723120 -5.317504 -4.232824 121.767712 7.162548e+07
610 0.722532 -5.316621 -4.232824 123.562609 9.128102e+07
620 0.721955 -5.315755 -4.232823 125.848671 7.166909e+07
630 0.721458 -5.315010 -4.232823 127.645154 9.120043e+07
640 0.721046 -5.314392 -4.232823 129.930541 7.169025e+07
650 0.720543 -5.313638 -4.232824 131.724909 9.130793e+07
660 0.719853 -5.312603 -4.232823 134.009783 7.170635e+07
670 0.719403 -5.311928 -4.232823 135.806819 9.117237e+07
680 0.718974 -5.311285 -4.232824 138.091629 7.170836e+07
690 0.718136 -5.310027 -4.232823 139.886318 9.129160e+07
700 0.717525 -5.309111 -4.232824 142.170923 7.171480e+07
710 0.717047 -5.308394 -4.232823 143.966434 9.124977e+07
720 0.716568 -5.307675 -4.232823 146.251770 7.169189e+07
730 0.716099 -5.306972 -4.232824 148.047837 9.122150e+07
740 0.715492 -5.306061 -4.232823 150.335459 7.162025e+07
750 0.714976 -5.305287 -4.232824 152.131689 9.121322e+07
760 0.714443 -5.304488 -4.232824 154.414694 7.176507e+07
770 0.713977 -5.303788 -4.232823 156.213365 9.108949e+07
780 0.713638 -5.303281 -4.232824 158.502430 7.157509e+07
790 0.713152 -5.302551 -4.232823 160.300440 9.112296e+07
800 0.712705 -5.301881 -4.232824 162.585058 7.171437e+07
810 0.712180 -5.301094 -4.232824 164.381497 9.120270e+07
820 0.711557 -5.300160 -4.232824 166.671429 7.154795e+07
830 0.710920 -5.299204 -4.232824 168.469087 9.114084e+07
840 0.710322 -5.298307 -4.232823 170.750677 7.180957e+07
850 0.709907 -5.297683 -4.232823 172.546548 9.123146e+07
860 0.709583 -5.297198 -4.232824 174.835857 7.156746e+07
870 0.709076 -5.296438 -4.232824 176.635109 9.106008e+07
880 0.708523 -5.295608 -4.232823 178.924628 7.156088e+07
890 0.707954 -5.294754 -4.232823 180.723339 9.108742e+07
900 0.707500 -5.294073 -4.232823 183.010424 7.163706e+07
910 0.707225 -5.293661 -4.232824 184.810342 9.102637e+07
920 0.706554 -5.292654 -4.232823 187.106339 7.135897e+07
930 0.706104 -5.291979 -4.232823 188.905850 9.104696e+07
940 0.705622 -5.291255 -4.232823 191.199944 7.141816e+07
950 0.705257 -5.290709 -4.232823 193.001106 9.096349e+07
960 0.704860 -5.290114 -4.232823 195.290493 7.156501e+07
970 0.704218 -5.289150 -4.232823 197.091551 9.096876e+07
980 0.703663 -5.288318 -4.232823 199.384294 7.146023e+07
990 0.703195 -5.287615 -4.232823 201.184439 9.101491e+07
1000 0.702793 -5.287013 -4.232823 203.477468 7.145136e+07

#Procs Particles | Time T_Force T_Neigh T_Comm T_Other | Steps/s Atomsteps/s Atomsteps/(proc*s)
1 16384000 | 203.477475 132.770917 21.192682 8.130405 41.383229 | 4.914549 8.051997e+07 8.051997e+07 PERFORMANCE
212209
start time: 12:33:05
