macro  KOKKOS_ENABLE_CUDA      : defined
macro  CUDA_VERSION          = 10000 = version 10.0
Kokkos::Cuda[ 0 ] TITAN Xp capability 6.1, Total Global Memory: 11.91 G, Shared Memory per Block: 48 K : Selected

#InputFile:
#=========================================================
# 3d Lennard-Jones melt 

units lj 
atom_style atomic 

newton off 
lattice fcc 0.8442 
region box block 0 160 0 160 0 160 
create_box 1 box 
create_atoms 1 box 
mass 1 2.0 

velocity all create 1.4 87287 loop geom 

pair_style lj/cut 2.5 
pair_coeff 1 1 1.0 1.0 2.5 

neighbor 0.3 bin 
neigh_modify delay 0 every 20 check no 
fix 1 all nve 
thermo 10 

run 1000 
#=========================================================

Using: ForceLJNeighFull Neighbor2D CommMPI BinningKKSort
Atoms: 16384000 16384000

#Timestep Temperature PotE ETot Time Atomsteps/s
0 1.400000 -6.332812 -4.232812 0.000000 0.000000e+00
10 1.267050 -6.133727 -4.233153 10.399226 1.575502e+07
20 0.772060 -5.390506 -4.232416 23.466996 1.253772e+07
30 0.620836 -5.163999 -4.232746 34.243023 1.520412e+07
40 0.717897 -5.309801 -4.232956 47.590663 1.227483e+07
50 0.714219 -5.304150 -4.232821 58.320385 1.526973e+07
60 0.708659 -5.295813 -4.232825 71.654252 1.228751e+07
70 0.717513 -5.309106 -4.232837 82.432603 1.520084e+07
80 0.726147 -5.322056 -4.232835 95.803080 1.225386e+07
90 0.730606 -5.328739 -4.232830 106.600267 1.517432e+07
100 0.733035 -5.332379 -4.232827 119.993897 1.223268e+07
110 0.734786 -5.335005 -4.232826 130.792389 1.517249e+07
120 0.736257 -5.337210 -4.232825 144.191750 1.222745e+07
130 0.737380 -5.338894 -4.232824 154.984777 1.518017e+07
140 0.738246 -5.340193 -4.232824 168.378131 1.223293e+07
150 0.739020 -5.341354 -4.232824 179.166624 1.518655e+07
160 0.739647 -5.342294 -4.232823 192.566488 1.222699e+07
170 0.740063 -5.342918 -4.232823 203.352250 1.519040e+07
180 0.740259 -5.343212 -4.232823 216.741766 1.223644e+07
190 0.740322 -5.343306 -4.232823 227.524841 1.519418e+07
200 0.740314 -5.343293 -4.232822 240.905530 1.224451e+07
210 0.740437 -5.343478 -4.232822 251.686139 1.519766e+07
220 0.740398 -5.343419 -4.232822 265.072817 1.223903e+07
230 0.740185 -5.343100 -4.232822 275.853089 1.519813e+07
240 0.739764 -5.342468 -4.232822 289.251425 1.222838e+07
250 0.739499 -5.342071 -4.232822 300.031983 1.519773e+07
260 0.739279 -5.341741 -4.232822 313.415839 1.224161e+07
270 0.738904 -5.341179 -4.232822 324.197079 1.519677e+07
280 0.738491 -5.340559 -4.232822 337.584757 1.223812e+07
290 0.738081 -5.339944 -4.232822 348.366362 1.519625e+07
300 0.737660 -5.339313 -4.232822 361.766334 1.222689e+07
310 0.737379 -5.338891 -4.232823 372.548678 1.519521e+07
320 0.737097 -5.338468 -4.232823 385.938456 1.223620e+07
330 0.736651 -5.337799 -4.232822 396.721684 1.519397e+07
340 0.736237 -5.337179 -4.232823 410.117808 1.223040e+07
350 0.735631 -5.336269 -4.232823 420.901962 1.519266e+07
360 0.735088 -5.335454 -4.232822 434.291171 1.223672e+07
370 0.734847 -5.335093 -4.232823 445.076970 1.519035e+07
380 0.734393 -5.334412 -4.232823 458.473215 1.223029e+07
390 0.733903 -5.333677 -4.232823 469.258436 1.519116e+07
400 0.733390 -5.332908 -4.232823 482.654214 1.223072e+07
410 0.732848 -5.332095 -4.232823 493.441048 1.518889e+07
420 0.732288 -5.331254 -4.232823 506.836490 1.223103e+07
430 0.731792 -5.330511 -4.232823 517.625797 1.518540e+07
440 0.731328 -5.329815 -4.232823 531.027053 1.222572e+07
450 0.730928 -5.329215 -4.232823 541.815396 1.518676e+07
460 0.730331 -5.328319 -4.232823 555.223136 1.221981e+07
470 0.729847 -5.327594 -4.232823 566.014801 1.518209e+07
480 0.729330 -5.326818 -4.232823 579.427135 1.221562e+07
490 0.728749 -5.325947 -4.232823 590.219105 1.518166e+07
500 0.728307 -5.325283 -4.232824 603.634583 1.221276e+07
510 0.727853 -5.324602 -4.232823 614.427545 1.518026e+07
520 0.727315 -5.323795 -4.232823 627.849885 1.220652e+07
530 0.726704 -5.322878 -4.232823 638.643343 1.517956e+07
540 0.726218 -5.322150 -4.232823 652.060030 1.221166e+07
550 0.725663 -5.321318 -4.232823 662.856143 1.517583e+07
560 0.725051 -5.320399 -4.232823 676.279393 1.220569e+07
570 0.724722 -5.319907 -4.232824 687.077248 1.517338e+07
580 0.724129 -5.319017 -4.232823 700.490030 1.221521e+07
590 0.723559 -5.318162 -4.232823 711.288189 1.517296e+07
600 0.723120 -5.317504 -4.232824 724.710683 1.220638e+07
610 0.722532 -5.316621 -4.232824 735.510796 1.517021e+07
620 0.721955 -5.315755 -4.232823 748.933990 1.220574e+07
630 0.721458 -5.315010 -4.232823 759.735407 1.516838e+07
640 0.721046 -5.314392 -4.232823 773.156457 1.220769e+07
650 0.720543 -5.313638 -4.232824 783.958215 1.516790e+07
660 0.719853 -5.312603 -4.232823 797.383527 1.220381e+07
670 0.719403 -5.311928 -4.232823 808.186493 1.516621e+07
680 0.718974 -5.311285 -4.232824 821.608869 1.220648e+07
690 0.718136 -5.310027 -4.232823 832.412906 1.516470e+07
700 0.717525 -5.309111 -4.232824 845.853360 1.219006e+07
710 0.717047 -5.308394 -4.232823 856.658260 1.516349e+07
720 0.716568 -5.307675 -4.232823 870.100042 1.218886e+07
730 0.716099 -5.306972 -4.232824 880.906966 1.516065e+07
740 0.715492 -5.306061 -4.232823 894.335440 1.220094e+07
750 0.714976 -5.305287 -4.232824 905.141170 1.516233e+07
760 0.714443 -5.304488 -4.232824 918.585238 1.218679e+07
770 0.713977 -5.303788 -4.232823 929.393347 1.515899e+07
780 0.713638 -5.303281 -4.232824 942.825297 1.219778e+07
790 0.713152 -5.302551 -4.232823 953.634596 1.515732e+07
800 0.712705 -5.301881 -4.232824 967.073810 1.219119e+07
810 0.712180 -5.301094 -4.232824 977.883734 1.515644e+07
820 0.711557 -5.300160 -4.232824 991.315838 1.219764e+07
830 0.710920 -5.299204 -4.232824 1002.126134 1.515592e+07
840 0.710322 -5.298307 -4.232823 1015.559605 1.219640e+07
850 0.709907 -5.297683 -4.232823 1026.370384 1.515524e+07
860 0.709583 -5.297198 -4.232824 1039.824669 1.217753e+07
870 0.709076 -5.296438 -4.232824 1050.638122 1.515150e+07
880 0.708523 -5.295608 -4.232823 1064.086780 1.218263e+07
890 0.707954 -5.294754 -4.232823 1074.900328 1.515136e+07
900 0.707500 -5.294073 -4.232823 1088.359608 1.217301e+07
910 0.707225 -5.293661 -4.232824 1099.175428 1.514818e+07
920 0.706554 -5.292654 -4.232823 1112.627285 1.217973e+07
930 0.706104 -5.291979 -4.232823 1123.444072 1.514683e+07
940 0.705622 -5.291255 -4.232823 1136.900669 1.217544e+07
950 0.705257 -5.290709 -4.232823 1147.718685 1.514511e+07
960 0.704860 -5.290114 -4.232823 1161.173477 1.217707e+07
970 0.704218 -5.289150 -4.232823 1171.991964 1.514445e+07
980 0.703663 -5.288318 -4.232823 1185.445437 1.217827e+07
990 0.703195 -5.287615 -4.232823 1196.264312 1.514390e+07
1000 0.702793 -5.287013 -4.232823 1209.723460 1.217313e+07

#Procs Particles | Time T_Force T_Neigh T_Comm T_Other | Steps/s Atomsteps/s Atomsteps/(proc*s)
1 16384000 | 1209.723467 852.489043 123.890594 18.568714 214.774881 | 0.826635 1.354359e+07 1.354359e+07 PERFORMANCE
1227402
start time: 19:59:04
